# ORCA input file
# SCF done       -241.443965009244          0.000767859208
! wb97x-d3 def2-SVP def2/J RIJCOSX Grid4 TightSCF
%maxcore 5000
%tddft
    Mode sTDA
    Ethresh 5.0
    maxcore 5000
end

%pal
  nprocs 6
  end
* xyz 1 2
   C        7.53239         5.83773        -2.53060
   O        6.46885         5.48488        -3.01228
   C        8.82246         5.93748        -3.24327
   C        9.10003         5.64836        -4.56404
   C       10.40602         5.81557        -4.99669
   C       11.39340         6.26091        -4.11851
   C       11.11240         6.55313        -2.79115
   C        9.80936         6.38866        -2.35025
   C        9.19490         6.60136        -1.03685
   C        9.85109         7.06650         0.07409
   C        9.26802         7.29205         1.33867
   N        8.87194         7.50517         2.39558
   C       11.22294         7.39453         0.10111
   N       12.33132         7.68002         0.18869
   C        7.79966         6.24195        -1.15319
   F       10.72229         5.54529        -6.26938
   F       12.64660         6.41097        -4.56209
   C       -9.55128        -2.79037        -6.34301
   O       -8.61632        -2.15534        -5.88147
   C      -10.37614        -3.77919        -5.62931
   C      -10.27960        -4.20616        -4.31985
   C      -11.18491        -5.15933        -3.87403
   C      -12.15496        -5.66056        -4.72922
   C      -12.25408        -5.23287        -6.04779
   C      -11.35538        -4.28259        -6.50462
   C      -11.19619        -3.64079        -7.81137
   C      -11.97687        -3.88244        -8.91208
   C      -11.83422        -3.26650       -10.17299
   N      -11.78626        -2.81424       -11.22798
   C      -13.05039        -4.79779        -8.93629
   N      -13.93463        -5.52405        -9.02891
   C      -10.07861        -2.72647        -7.70752
   C        6.86757         6.24332        -0.13820
   C        5.52153         5.88766        -0.16676
   C        4.70671         5.90749         0.97091
   C        3.37144         5.49152         0.77554
   C        3.12829         5.13779        -0.56426
   S        4.56148         5.33998        -1.53046
   C        1.95876         4.64229        -1.17597
   S        1.88500         4.60145        -2.93398
   C        0.33960         3.87189        -2.85793
   C       -0.08787         3.64749        -1.55181
   C        0.81297         4.10098        -0.60128
   C       -0.64733         3.44497        -3.79554
   C       -1.72159         2.91199        -3.04440
   C       -1.43560         2.97931        -1.55416
   C       -0.66668         3.49895        -5.18830
   C       -1.78133         3.00884        -5.82847
   C       -2.82866         2.42246        -5.07536
   C       -2.81601         2.37971        -3.68268
   C       -2.07484         2.93577        -7.31904
   C       -3.37879         2.17826        -7.31454
   C       -3.77978         1.91672        -6.00960
   C       -4.29294         1.73342        -8.25942
   C       -5.37886         1.08892        -7.67991
   S       -5.26431         1.06849        -5.92597
   C       -6.47658         0.44133        -8.28853
   S       -7.43783        -0.65258        -7.33632
   C       -8.48993        -1.05066        -8.68133
   C       -8.07440        -0.32666        -9.80166
   C       -6.95029         0.50849        -9.60887
   C       -9.56964        -1.93615        -8.70947
   C       -1.36202         1.53251        -1.01609
   C       -0.89580         1.40106         0.42757
   C       -2.48949         3.81105        -0.80520
   C       -2.67022         5.20209        -1.40167
   C       -2.35330         4.32986        -7.92420
   C       -1.16623         5.28200        -7.97135
   C       -0.93922         2.16565        -8.01930
   C       -1.13339         1.93884        -9.51259
   S        5.04858         6.36980         2.59715
   C        3.39768         6.03293         3.04706
   C        2.64679         5.58835         1.99245
   F        1.35532         5.28876         2.11212
   C        2.97444         6.24502         4.43605
   O        4.01401         6.67360         5.16149
   O        1.86438         6.05090         4.85956
   C        3.77435         6.95390         6.54046
   C        3.20031         8.35022         6.73016
   C       -6.65155         1.20966       -10.80677
   C       -7.49290         0.91253       -11.84426
   S       -8.71376        -0.25322       -11.40364
   F       -5.65858         2.08960       -10.92201
   C       -7.47402         1.45216       -13.20835
   O       -6.64432         2.20872       -13.64310
   O       -8.52494         0.98350       -13.89177
   C       -8.64608         1.38429       -15.25604
   C       -7.82165         0.48827       -16.16856
   H        8.33306         5.30331        -5.23879
   H       11.91265         6.89321        -2.15485
   H       -9.51629        -3.80132        -3.67332
   H      -11.13477        -5.51360        -2.85551
   H      -12.85179        -6.40115        -4.36648
   H      -13.01881        -5.64198        -6.68717
   H        7.20285         6.54553         0.84707
   H        0.66119         4.03983         0.45784
   H        0.17849         3.90501        -5.72123
   H       -3.64139         1.93944        -3.14460
   H       -4.18328         1.85240        -9.31867
   H      -10.04443        -1.98868        -9.68244
   H       -2.35467         1.08918        -1.11523
   H       -0.68243         0.96822        -1.66021
   H       -1.54206         1.95040         1.10606
   H       -0.91598         0.35300         0.71774
   H        0.12211         1.76246         0.54220
   H       -3.44075         3.27639        -0.83313
   H       -2.18404         3.91044         0.23662
   H       -2.99954         5.14121        -2.43669
   H       -3.41543         5.75491        -0.83512
   H       -1.73604         5.75819        -1.37008
   H       -2.73972         4.18383        -8.93392
   H       -3.15095         4.78980        -7.33459
   H       -0.34055         4.86165        -8.53867
   H       -1.47070         6.20677        -8.45661
   H       -0.82079         5.52651        -6.97079
   H       -0.00764         2.70881        -7.85605
   H       -0.84211         1.19694        -7.52156
   H       -1.23432         2.87844       -10.04807
   H       -0.26859         1.41368        -9.91225
   H       -2.01247         1.33089        -9.70416
   H        3.08502         6.20197         6.93874
   H        4.75074         6.85925         7.01926
   H        2.22272         8.41840         6.25879
   H        3.09424         8.55791         7.79084
   H        3.86125         9.09103         6.28660
   H       -9.71145         1.30336       -15.47979
   H       -8.31986         2.42556       -15.34841
   H       -8.11365        -0.55084       -16.03672
   H       -7.98418         0.77516       -17.20328
   H       -6.76435         0.59230       -15.93637
*
