# ORCA input file
# SCF done       -285.453560016621          0.000921014045
! wb97x-d3 def2-SVP def2/J RIJCOSX Grid4 TightSCF
%maxcore 5000
%tddft
    Mode sTDA
    Ethresh 5.0
    maxcore 5000
end

%pal
  nprocs 6
  end
* xyz 1 2
   C        0.93275        -0.79161        -1.37815
   C        0.92920        -1.86077        -0.50386
   C        2.04720        -2.73241        -0.22984
   C        1.58578        -3.75348         0.71479
   C        0.23819        -3.50459         1.02438
   C       -0.21856        -2.31105         0.28125
   C        2.23521        -4.83315         1.29057
   C        1.51570        -5.63639         2.16455
   C        0.17950        -5.37884         2.46662
   C       -0.47797        -4.30096         1.89433
   O       -1.33344        -1.82100         0.32860
   C        3.32359        -2.64660        -0.73077
   C        4.36209        -3.54301        -0.40406
   C        3.79328        -1.66615        -1.62773
   N        4.26013        -0.90340        -2.34986
   N        5.25083        -4.23462        -0.18114
   F       -0.47610        -6.18044         3.31618
   F        2.12599        -6.68551         2.72878
   C       -6.41313        11.41328        -5.20992
   S       -7.16518         9.85097        -5.39220
   C       -5.73789         9.10653        -4.74601
   C       -4.73154        10.01553        -4.40684
   C       -5.10289        11.31973        -4.67710
   C       -5.32855         7.78443        -4.47988
   C       -3.99800         7.85196        -3.95355
   C       -3.52424         9.29389        -3.87974
   C       -3.18875         9.63382        -2.43839
   C       -2.35523         9.59511        -4.80323
   C       -5.95779         6.54767        -4.73142
   C       -5.30628         5.44079        -4.29846
   C       -3.97088         5.49113        -3.69753
   C       -3.29182         6.74542        -3.59981
   C       -5.23958         3.96565        -4.68441
   C       -3.81098         4.01480        -4.13595
   C       -3.64874         4.38876        -2.65513
   C       -6.17014         2.99789        -4.01125
   C       -5.26815         3.84528        -6.19554
   C       -2.75378         3.34706        -3.32473
   C       -3.15030         2.32692        -2.33348
   S       -4.40271         3.18426        -1.50304
   C       -1.28869         3.11575        -3.72418
   C       -0.96682         1.91163        -2.86603
   C       -2.07454         1.50015        -2.07384
   C        0.13517         1.13278        -2.66241
   C       -0.07954         0.10227        -1.71965
   S       -1.71667         0.14302        -1.07615
   C       -6.37100         3.31781        -6.85349
   C       -2.01940         8.75614        -5.85555
   C       -0.96783         9.07693        -6.69604
   C       -0.23620        10.24270        -6.51477
   C       -0.59494        11.09114        -5.47433
   C       -1.64147        10.77493        -4.63017
   C       -1.94887         9.27930        -1.92122
   C       -1.62866         9.56739        -0.60919
   C       -2.53289        10.21791         0.22096
   C       -3.77595        10.55438        -0.29628
   C       -4.10430        10.26289        -1.60785
   C       -7.25254         3.44714        -3.26694
   C       -8.08802         2.54175        -2.63675
   C       -7.84735         1.18295        -2.74072
   C       -6.77231         0.72896        -3.48685
   C       -5.94127         1.63086        -4.12362
   C       -4.18517         4.28147        -6.94958
   C       -4.18743         4.14966        -8.32403
   C       -5.27320         3.59060        -8.98485
   C       -6.36779         3.18921        -8.22997
   C       -0.49444         4.36811        -3.41873
   C        0.12535         4.55722        -2.19186
   C        0.80021         5.73489        -1.92341
   C        0.86908         6.75275        -2.86594
   C        0.23433         6.56466        -4.08764
   C       -0.44623         5.39263        -4.35776
   C       -1.12110         2.66323        -5.16657
   C       -2.15161         2.04611        -5.86006
   C       -1.96679         1.60806        -7.15886
   C       -0.73920         1.74565        -7.78958
   C        0.30381         2.32653        -7.07753
   C        0.11966         2.77576        -5.78474
   C        0.87613        10.60873        -7.45381
   C        0.33952        11.46119        -8.60560
   C       -2.19118        10.50567         1.65400
   C       -2.58475         9.32605         2.54540
   C       -5.24489         3.37045       -10.46927
   C       -4.77823         1.94705       -10.78323
   C        1.65164         8.00551        -2.59783
   C        3.10955         7.82036        -3.02343
   C       -0.54298         1.31095        -9.21305
   C       -0.65951         2.50570       -10.16165
   C       -5.82849        15.04394        -5.21085
   C       -6.78486        15.97085        -5.55683
   C       -6.53278        17.39944        -5.58385
   C       -7.81495        18.07555        -5.78298
   C       -8.81008        17.10219        -5.95879
   C       -8.21246        15.75118        -5.85730
   O       -8.82024        14.70919        -5.99425
   C       -5.32082        18.03762        -5.50427
   C       -5.16401        19.43939        -5.54709
   N       -4.96280        20.56932        -5.57063
   C       -4.05523        17.42093        -5.40815
   N       -2.98185        17.01517        -5.35018
   C       -8.15164        19.41964        -5.82184
   C       -9.48054        19.75204        -6.04088
   C      -10.46069        18.77667        -6.22244
   C      -10.13199        17.43135        -6.18215
   F       -9.82622        21.04447        -6.07658
   F      -11.73108        19.14343        -6.43481
   S       -4.39429        12.87546        -4.50666
   C       -5.86453        13.64590        -5.13310
   C       -6.83507        12.70350        -5.46310
   H        1.86111        -0.60240        -1.90261
   H        3.26554        -5.07780         1.09194
   H       -1.51172        -4.09745         2.12375
   H       -6.89732         6.50526        -5.26185
   H       -2.29489         6.79746        -3.19599
   H        1.08896         1.27027        -3.14028
   H       -7.23337         2.99624        -6.28815
   H       -2.57531         7.84472        -6.02058
   H       -0.71265         8.40744        -7.50563
   H       -0.04885        12.01061        -5.32270
   H       -1.90361        11.44585        -3.82517
   H       -1.22423         8.78847        -2.55324
   H       -0.65736         9.28957        -0.22613
   H       -4.49740        11.05628         0.33234
   H       -5.08027        10.53511        -1.98237
   H       -7.43449         4.50840        -3.17681
   H       -8.92685         2.90092        -2.05937
   H       -8.49566         0.47804        -2.24259
   H       -6.57999        -0.33008        -3.57295
   H       -5.10867         1.27252        -4.71273
   H       -3.32632         4.71405        -6.45718
   H       -3.32965         4.48513        -8.88928
   H       -7.23030         2.76704        -8.72535
   H        0.08500         3.78013        -1.44287
   H        1.28080         5.86354        -0.96434
   H        0.26202         7.34908        -4.83080
   H       -0.94176         5.27081        -5.30999
   H       -3.11209         1.90260        -5.39212
   H       -2.79278         1.14858        -7.68274
   H        1.27541         2.42382        -7.54012
   H        0.94585         3.22170        -5.25068
   H        1.64280        11.17173        -6.91804
   H        1.33461         9.70390        -7.85823
   H       -0.10851        12.37513        -8.22268
   H        1.14322        11.72742        -9.28777
   H       -0.42016        10.91398        -9.15958
   H       -1.11865        10.68628         1.74899
   H       -2.71933        11.40076         1.98793
   H       -2.06399         8.42407         2.23170
   H       -2.33062         9.53216         3.58232
   H       -3.65477         9.14235         2.47953
   H       -6.24236         3.52117       -10.88667
   H       -4.56595         4.08505       -10.93862
   H       -5.45448         1.22026       -10.33864
   H       -4.75050         1.78379       -11.85782
   H       -3.78194         1.77821       -10.38105
   H        1.22052         8.84102        -3.15448
   H        1.61649         8.24575        -1.53340
   H        3.16624         7.59240        -4.08543
   H        3.67848         8.72678        -2.83184
   H        3.56476         7.00070        -2.47208
   H        0.44415         0.85835        -9.32766
   H       -1.29336         0.56356        -9.47830
   H        0.09706         3.25126        -9.92788
   H       -0.52621         2.18690       -11.19272
   H       -1.63847         2.96997       -10.06528
   H       -4.86817        15.45263        -4.91893
   H       -7.43524        20.21277        -5.68608
   H      -10.88554        16.67239        -6.31965
   H       -7.79569        12.97494        -5.85972
*
