# ORCA input file
# SCF done       -264.760547749020          0.000822611156
! wb97x-d3 def2-SVP def2/J RIJCOSX Grid4 TightSCF
%maxcore 5000
%tddft
    Mode sTDA
    Ethresh 5.0
    maxcore 5000
end

%pal
  nprocs 6
  end
* xyz 1 2
   C        1.15784         0.39609         0.49148
   C        1.30161         1.50991         1.28313
   C        2.37029         1.73549         2.23437
   C        2.22680         3.09734         2.74313
   C        1.06498         3.67744         2.15896
   C        0.44307         2.69845         1.25249
   O       -0.57783         2.86192         0.60550
   C        3.34114         0.84658         2.62531
   C        4.34926         1.14171         3.56547
   N        5.19877         1.31286         4.31936
   C        3.47591        -0.48172         2.17425
   N        3.65585        -1.57496         1.86767
   C        2.98730         3.83051         3.61390
   C        2.60857         5.15815         3.92316
   C        1.44238         5.72774         3.33705
   C        0.67133         4.95246         2.44128
   C        1.09190         7.05231         3.66245
   C        1.85797         7.78657         4.52705
   C        3.00704         7.22703         5.10438
   C        3.37402         5.94190         4.80976
   C        0.19894         0.08276        -0.47772
   C        0.28179        -1.09051        -1.24494
   C       -0.73649        -1.19509        -2.16393
   C       -1.61953        -0.11409        -2.10290
   S       -1.20216         1.04743        -0.92365
   C       -1.16932        -2.16203        -3.24436
   C       -2.34991        -1.40499        -3.83815
   C       -2.60895        -0.23792        -3.12582
   C       -0.08353        -2.33840        -4.29316
   C       -1.57776        -3.45709        -2.56364
   C        0.51087        -1.20631        -4.83151
   C        1.47807        -1.29667        -5.81669
   C        1.87086        -2.54344        -6.29232
   C        1.27274        -3.68451        -5.75574
   C        0.31107        -3.58214        -4.77406
   C       -2.89737        -3.89072        -2.51874
   C       -3.23505        -5.04963        -1.85217
   C       -2.26380        -5.80892        -1.19925
   C       -0.94197        -5.37595        -1.23502
   C       -0.61473        -4.21287        -1.90786
   O        2.80240        -2.76017        -7.25451
   C        3.44331        -1.65193        -7.85547
   C        4.41709        -2.18962        -8.89206
   O       -2.70597        -6.92825        -0.57175
   C       -1.78125        -7.73034         0.13679
   C       -2.55279        -8.88599         0.75407
   C       -3.10262        -1.71886        -4.98899
   C       -4.16202        -0.82024        -5.35448
   C       -4.43037         0.32576        -4.55481
   C       -3.66866         0.62816        -3.47111
   C       -2.85032        -2.82704        -5.79886
   C       -3.54205        -3.04074        -6.98396
   C       -4.59213        -2.13394        -7.35748
   C       -4.89556        -1.06996        -6.50691
   C       -3.20017        -4.12639        -7.83724
   C       -3.81491        -4.30601        -9.03545
   C       -4.82897        -3.40198        -9.41494
   C       -5.23971        -2.35838        -8.59059
   C       -5.57014        -3.30736       -10.63043
   C       -6.45220        -2.23600       -10.58637
   C       -6.34630        -1.54255        -9.24730
   C       -7.68627        -1.66697        -8.54590
   C       -7.87693        -2.49981        -7.44964
   C       -9.11912        -2.61679        -6.86269
   C      -10.21484        -1.91058        -7.35979
   C      -10.03236        -1.08525        -8.46505
   C       -8.78175        -0.97515        -9.04541
   C       -5.88415        -0.10268        -9.42677
   C       -4.85203         0.16587       -10.31435
   C       -4.36746         1.44992       -10.48722
   C       -4.90951         2.50299        -9.75851
   C       -5.94845         2.23659        -8.86594
   C       -6.42702         0.95420        -8.70426
   S       -5.57335        -4.10989       -12.13985
   C       -6.77620        -2.97856       -12.74476
   C       -7.16139        -2.07123       -11.76635
   O      -11.38951        -2.09747        -6.70575
   C      -12.54434        -1.41750        -7.15738
   C      -13.69759        -1.81456        -6.24949
   O       -4.51331         3.79976        -9.83611
   C       -3.46086         4.14340       -10.71592
   C       -3.22104         5.63927       -10.58413
   C       -7.28493        -3.05641       -14.05957
   C       -6.70230        -3.60389       -15.16336
   C       -5.33295        -3.97098       -15.44791
   C       -5.35546        -4.88609       -16.58387
   C       -6.66912        -4.88327       -17.13766
   C       -7.53898        -4.01364       -16.32182
   O       -8.69974        -3.72710       -16.51526
   C       -4.20883        -3.35670       -14.95628
   C       -4.23730        -2.26035       -14.07174
   N       -4.20992        -1.33059       -13.39745
   C       -2.89882        -3.68402       -15.35615
   N       -1.80967        -3.91868       -15.63548
   C       -4.37118        -5.64905       -17.14998
   C       -4.66513        -6.42013       -18.29838
   C       -5.97437        -6.39853       -18.85955
   C       -6.97844        -5.61271       -18.24865
   C       -6.23437        -7.16542       -20.01226
   C       -5.24927        -7.92190       -20.58698
   C       -3.96052        -7.94512       -20.03373
   C       -3.67517        -7.21233       -18.91398
   H        1.91482        -0.37211         0.59678
   H        3.87740         3.43140         4.07337
   H       -0.21535         5.36683         1.98474
   H        0.20586         7.47789         3.21407
   H        1.58264         8.80208         4.77013
   H        3.60087         7.81938         5.78446
   H        4.25794         5.50637         5.25246
   H        1.08482        -1.79225        -1.10885
   H        0.21353        -0.22886        -4.47917
   H        1.91343        -0.38966        -6.20537
   H        1.58085        -4.64783        -6.13062
   H       -0.13463        -4.48415        -4.38082
   H       -3.67516        -3.32297        -3.00530
   H       -4.25820        -5.38895        -1.81852
   H       -0.15943        -5.93053        -0.74181
   H        0.41732        -3.89736        -1.92830
   H        2.69900        -1.00103        -8.33511
   H        3.98176        -1.06988        -7.09441
   H        3.88011        -2.76388        -9.64200
   H        4.93502        -1.36620        -9.37544
   H        5.14533        -2.83926        -8.41432
   H       -1.01015        -8.11147        -0.54734
   H       -1.29247        -7.13767         0.92243
   H       -3.03463        -9.46893        -0.02599
   H       -1.87643        -9.52599         1.31318
   H       -3.31877        -8.50381         1.42311
   H       -5.24594         0.96803        -4.85294
   H       -3.84538         1.51086        -2.87603
   H       -2.07389        -3.51999        -5.51767
   H       -5.69927        -0.40099        -6.76627
   H       -2.41372        -4.79284        -7.51506
   H       -3.54276        -5.11006        -9.70225
   H       -7.05127        -3.06437        -7.04479
   H       -9.26840        -3.25847        -6.00889
   H      -10.85331        -0.52492        -8.88404
   H       -8.65744        -0.32350        -9.89729
   H       -4.41720        -0.63147       -10.89791
   H       -3.57107         1.60975       -11.19587
   H       -6.36802         3.05827        -8.30690
   H       -7.23912         0.78336        -8.01206
   H       -7.88594        -1.30203       -11.96097
   H      -12.38378        -0.33103        -7.11350
   H      -12.76561        -1.69861        -8.19656
   H      -13.47327        -1.53833        -5.22285
   H      -14.60722        -1.31147        -6.56485
   H      -13.84977        -2.88952        -6.29285
   H       -2.55074         3.58796       -10.44990
   H       -3.73587         3.89190       -11.74951
   H       -2.94603         5.88199        -9.56139
   H       -2.42161         5.94639       -11.25215
   H       -4.12698         6.18312       -10.83680
   H       -8.29747        -2.68930       -14.19958
   H       -3.37440        -5.68843       -16.73877
   H       -7.97665        -5.59024       -18.66032
   H       -7.22868        -7.14404       -20.43417
   H       -5.45760        -8.50604       -21.47094
   H       -3.19406        -8.54600       -20.50009
   H       -2.68339        -7.22354       -18.48596
*
