# ORCA input file
# SCF done       -242.080527052235          0.000425851894
! wb97x-d3 def2-SVP def2/J RIJCOSX Grid4 TightSCF
%maxcore 5000
%tddft
    Mode sTDA
    Ethresh 5.0
    maxcore 5000
end

%pal
  nprocs 6
  end
* xyz 1 2
   C       -0.89497        -0.24261        -0.38009
   C       -1.26681         0.74647         0.58030
   C       -0.54069         0.85568         1.76844
   C        0.48978        -0.02768         1.98249
   C        0.85599        -1.02111         1.02479
   C        0.15672        -1.10453        -0.18107
   S        1.43736        -0.12560         3.45595
   C        2.26749        -1.50142         2.81391
   C        1.88871        -1.84056         1.52592
   C        3.18812        -2.45980         3.29524
   C        3.38309        -3.43782         2.30616
   C        2.61118        -3.08123         1.05315
   C        1.57512        -4.12135         0.66307
   C        3.62090        -2.82269        -0.05173
   C        0.86565        -4.79231         1.65010
   C       -0.12924        -5.68984         1.31152
   C       -0.44586        -5.93574        -0.01806
   C        0.26311        -5.25753        -1.00053
   C        1.26029        -4.35988        -0.66771
   C        4.35058        -3.89328        -0.55711
   C        5.30328        -3.69081        -1.53538
   C        5.55716        -2.41769        -2.03248
   C        4.82295        -1.35488        -1.52647
   C        3.86799        -1.55034        -0.54362
   C       -1.56446        -6.86603        -0.38697
   C       -2.87273        -6.08755        -0.54241
   C        6.56483        -2.20954        -3.12541
   C        5.91297        -2.40063        -4.49654
   S        4.03872        -2.79562         4.73223
   C        4.65291        -4.29989         4.02675
   C        4.20704        -4.46488         2.71498
   C        5.44834        -5.08776         4.86981
   C        5.98511        -6.34397         4.71572
   C        5.82468        -7.28359         3.58877
   C        6.44392        -8.55137         4.03619
   C        6.98968        -8.38768         5.31812
   C        6.76216        -7.00794         5.74889
   O        5.30556        -7.10922         2.50523
   C        7.24935        -6.46735         6.91036
   C        7.11357        -5.12823         7.33660
   C        8.00275        -7.18962         7.86130
   N        7.07106        -4.06186         7.76153
   N        8.61396        -7.71587         8.67777
   C        6.50490        -9.75145         3.35598
   C        7.12641       -10.81618         3.98722
   C        7.66759       -10.66578         5.26427
   C        7.61011        -9.45814         5.94392
   S       -1.96597        -0.27453        -1.76900
   C       -2.91577         0.97803        -1.04801
   C       -2.42949         1.43053         0.16771
   C       -4.12606         1.64561        -1.34355
   C       -4.39984         2.55931        -0.31580
   C       -3.30021         2.53485         0.72200
   C       -3.91102         2.25765         2.08034
   C       -2.47550         3.81815         0.71421
   C       -3.88041         0.99800         2.65930
   C       -4.46765         0.78178         3.89360
   C       -5.11100         1.80829         4.57022
   C       -5.15580         3.06378         3.97553
   C       -4.56714         3.28690         2.74662
   C       -1.77184         4.21299         1.84416
   C       -1.00251         5.36131         1.82477
   C       -0.91561         6.14434         0.68128
   C       -1.61038         5.73607        -0.44941
   C       -2.37465         4.58463        -0.43892
   C       -5.69671         1.58547         5.93399
   C       -4.66186         1.90532         7.01507
   C       -0.05631         7.37460         0.65152
   C        1.35149         7.03188         0.15979
   S       -5.35133         1.60040        -2.52856
   C       -6.25608         2.83481        -1.65843
   C       -5.59491         3.22462        -0.49227
   C       -7.52164         3.19967        -2.14339
   C       -8.34907         4.21823        -1.75170
   C       -9.80127         4.10670        -2.03500
   C      -10.44033         5.13275        -1.17674
   C       -9.44504         5.88430        -0.52791
   C       -8.13402         5.42082        -0.98665
   O      -10.34454         3.31690        -2.77127
   C       -6.97208         6.14768        -0.91616
   C       -5.80789         5.80730        -1.63241
   C       -6.83480         7.35073        -0.19614
   N       -4.85521         5.58842        -2.23423
   N       -6.66161         8.31559         0.40103
   C      -11.78449         5.36890        -0.96924
   C      -12.13145         6.37422        -0.08008
   C      -11.14901         7.11649         0.57560
   C       -9.79788         6.88821         0.35839
   F      -11.51401         8.07000         1.44003
   F      -13.42328         6.63297         0.15590
   F        7.20590       -12.00069         3.36831
   F        8.25669       -11.71230         5.85385
   H       -0.81098         1.59090         2.50751
   H        0.41740        -1.85277        -0.91107
   H        1.09287        -4.61264         2.69129
   H       -0.66804        -6.20656         2.09278
   H        0.03298        -5.43342        -2.04164
   H        1.80199        -3.84955        -1.45115
   H        4.16289        -4.89040        -0.18863
   H        5.86266        -4.53328        -1.91551
   H        5.00131        -0.35665        -1.89997
   H        3.31562        -0.70291        -0.16516
   H       -1.33235        -7.36953        -1.32743
   H       -1.68655        -7.62581         0.38712
   H       -2.77389        -5.33099        -1.31775
   H       -3.68440        -6.75849        -0.81304
   H       -3.12967        -5.58931         0.38988
   H        6.97910        -1.20160        -3.06086
   H        7.38300        -2.92376        -3.01399
   H        5.10234        -1.68816        -4.63277
   H        6.64305        -2.25169        -5.28840
   H        5.50466        -3.40492        -4.58492
   H        4.47852        -5.32314         2.12995
   H        5.63293        -4.61806         5.82876
   H        6.08259        -9.86099         2.36986
   H        8.04266        -9.39791         6.92873
   H       -3.39341         0.17833         2.15208
   H       -4.42530        -0.20376         4.33474
   H       -5.65638         3.87642         4.48213
   H       -4.59852         4.27301         2.30557
   H       -1.84110         3.63560         2.75473
   H       -0.46835         5.65651         2.71666
   H       -1.56323         6.32791        -1.35139
   H       -2.90843         4.30066        -1.33277
   H       -6.56971         2.22641         6.07146
   H       -6.01494         0.54624         6.03611
   H       -4.33958         2.94115         6.93590
   H       -5.08483         1.74795         8.00420
   H       -3.78888         1.26587         6.90455
   H       -0.49929         8.11663        -0.01532
   H        0.00685         7.80727         1.65180
   H        1.30997         6.61112        -0.84235
   H        1.97331         7.92359         0.13695
   H        1.81550         6.30112         0.81872
   H       -6.01343         3.91971         0.21198
   H       -7.95996         2.52552        -2.87333
   H      -12.54301         4.79463        -1.47676
   H       -9.07402         7.48576         0.88847
*
