# ORCA input file
# SCF done       -231.530128648970          0.000608107614
! wb97x-d3 def2-SVP def2/J RIJCOSX Grid4 TightSCF
%maxcore 5000
%tddft
    Mode sTDA
    Ethresh 5.0
    maxcore 5000
end

%pal
  nprocs 6
  end
* xyz 1 2
   C       -1.03329        -0.12548        -0.89077
   C       -1.42864         0.98829        -0.09064
   C       -0.76641         1.23641         1.11394
   C        0.20760         0.35247         1.51161
   C        0.58943        -0.77124         0.71901
   C       -0.02738        -0.98342        -0.51535
   S        1.02888         0.39552         3.06267
   C        1.80464        -1.10362         2.67822
   C        1.51909        -1.57665         1.40992
   C        2.56863        -2.07075         3.37342
   C        2.75151        -3.18510         2.54295
   C        2.17390        -2.91796         1.16852
   C        1.10981        -3.91373         0.74676
   C        3.33829        -2.85856         0.19475
   C        0.96254        -4.29364        -0.58034
   C       -0.06462        -5.13899        -0.95622
   C       -0.97077        -5.62224        -0.02204
   C       -0.81911        -5.23814         1.30384
   C        0.20560        -4.39297         1.68511
   C        4.04414        -4.02493        -0.07957
   C        5.13325        -4.00084        -0.92757
   C        5.55110        -2.81468        -1.51960
   C        4.83900        -1.65588        -1.24625
   C        3.74665        -1.67284        -0.39636
   C       -2.12031        -6.48770        -0.44958
   C       -3.30523        -5.61918        -0.87797
   C        6.71313        -2.79993        -2.47005
   C        6.24117        -3.08817        -3.89673
   S        3.20495        -2.30490         4.93833
   C        3.67914        -3.95404         4.50700
   C        3.38004        -4.23844         3.17763
   C        4.23433        -4.72692         5.54169
   C        4.48020        -6.07191         5.63000
   C        4.12692        -7.14550         4.67004
   C        4.27244        -8.40614         5.41858
   C        4.77746        -8.14531         6.70277
   C        4.99866        -6.70693         6.83053
   O        3.78394        -7.05016         3.50836
   C        5.64237        -6.09832         7.87579
   C        5.95430        -4.72496         7.96653
   C        6.13447        -6.78483         9.00579
   N        6.26734        -3.62958         8.11492
   N        6.55451        -7.27883         9.95337
   C        3.97312        -9.69251         5.01305
   C        4.17369       -10.72820         5.91102
   C        4.66420       -10.48954         7.19345
   C        4.97104        -9.18883         7.59110
   S       -2.03447        -0.32351        -2.31788
   C       -3.00083         1.01845        -1.80856
   C       -2.56096         1.62321        -0.64400
   C       -4.20181         1.63540        -2.23066
   C       -4.51863         2.66608        -1.33569
   C       -3.45481         2.78336        -0.26631
   C       -4.11721         2.67329         1.09242
   C       -2.63258         4.05850        -0.40144
   C       -4.07993         1.50764         1.84216
   C       -4.71315         1.44709         3.07146
   C       -5.41163         2.53654         3.57094
   C       -5.46520         3.69412         2.80356
   C       -4.82913         3.76365         1.58064
   C       -1.98933         4.60716         0.69973
   C       -1.21167         5.74187         0.56492
   C       -1.05319         6.35761        -0.66943
   C       -1.68807         5.79749        -1.76980
   C       -2.46420         4.66100        -1.64092
   C       -6.05036         2.48872         4.92876
   C       -5.08705         3.02775         5.98860
   C       -0.17692         7.56725        -0.81944
   C        1.26415         7.14820        -1.11777
   S       -5.38783         1.42581        -3.43830
   C       -6.36730         2.70712        -2.70945
   C       -5.73198         3.26844        -1.60551
   C       -7.61707         2.94165        -3.30876
   C       -8.69649         3.67284        -2.88812
   C       -8.90087         4.36821        -1.59428
   C      -10.34461         4.65534        -1.52640
   C      -10.96719         4.26781        -2.72379
   C       -9.94849         3.73388        -3.62433
   O       -8.08267         4.65864        -0.74458
   C      -10.14931         3.42002        -4.94290
   C       -9.15379         3.00512        -5.85332
   C      -11.39563         3.51912        -5.59642
   N       -8.40492         2.68489        -6.66342
   N      -12.37633         3.57000        -6.19143
   C      -11.06947         5.20632        -0.48699
   C      -12.43651         5.35990        -0.64819
   C      -13.07537         4.97128        -1.82471
   C      -12.33479         4.42405        -2.87102
   C      -14.55813         5.11885        -1.95512
   C        4.83719       -11.62152         8.15571
   H       -1.05345         2.06994         1.73284
   H        0.24665        -1.82973        -1.12329
   H        1.65595        -3.93198        -1.32614
   H       -0.16383        -5.42575        -1.99353
   H       -1.51258        -5.60354         2.04779
   H        0.30348        -4.10189         2.72128
   H        3.73117        -4.95651         0.36711
   H        5.67167        -4.91584        -1.12849
   H        5.14371        -0.72275        -1.69837
   H        3.21385        -0.75441        -0.19863
   H       -1.81714        -7.11983        -1.28658
   H       -2.42594        -7.13456         0.37494
   H       -3.02257        -4.97510        -1.70778
   H       -4.14055        -6.24159        -1.18998
   H       -3.63012        -4.98899        -0.05287
   H        7.20171        -1.82395        -2.44272
   H        7.44254        -3.55610        -2.17302
   H        5.52262        -2.33670        -4.21656
   H        7.08298        -3.07910        -4.58504
   H        5.76175        -4.06328        -3.94690
   H        3.59586        -5.19498         2.74071
   H        4.43491        -4.15075         6.43820
   H        3.59057        -9.87155         4.01989
   H        3.94412       -11.74219         5.61735
   H        5.34620        -9.01614         8.58694
   H       -3.55395         0.63900         1.47474
   H       -4.66390         0.53390         3.64753
   H       -6.01400         4.55070         3.16684
   H       -4.87612         4.67413         1.00230
   H       -2.11073         4.15854         1.67482
   H       -0.72414         6.15777         1.43515
   H       -1.57838         6.25804        -2.74121
   H       -2.94689         4.24636        -2.51380
   H       -6.96056         3.09164         4.93028
   H       -6.32017         1.46034         5.17678
   H       -4.81635         4.05722         5.76484
   H       -5.54714         2.99582         6.97344
   H       -4.17713         2.43197         6.01071
   H       -0.54578         8.19265        -1.63474
   H       -0.19765         8.15602         0.09979
   H        1.30732         6.57167        -2.03920
   H        1.90044         8.02347        -1.22506
   H        1.65371         6.53173        -0.31064
   H       -6.17435         4.06445        -1.03687
   H       -7.75331         2.38771        -4.23103
   H      -10.57057         5.50227         0.42305
   H      -13.02502         5.78598         0.15134
   H      -12.83958         4.12313        -3.77485
   H      -14.86121         5.10181        -2.99856
   H      -15.05646         4.29503        -1.44299
   H      -14.89672         6.04684        -1.49971
   H        5.10993       -12.53684         7.63581
   H        5.59854       -11.38952         8.89592
   H        3.89928       -11.80177         8.68246
*
