# ORCA input file
# SCF done       -233.114697802195          0.000631793709
! wb97x-d3 def2-SVP def2/J RIJCOSX Grid4 TightSCF
%maxcore 5000
%tddft
    Mode sTDA
    Ethresh 5.0
    maxcore 5000
end

%pal
  nprocs 6
  end
* xyz 1 2
   C        6.02441         1.06991        -6.24251
   O        5.13005         1.68416        -5.69187
   C        7.46722         1.31106        -6.03230
   C        8.06155         2.19327        -5.17811
   C        9.47212         2.24499        -5.11868
   C       10.23573         1.37623        -5.95021
   C        9.58824         0.47769        -6.82977
   C        8.21973         0.44734        -6.87209
   C        7.28320        -0.35253        -7.65821
   C        7.64474        -1.18581        -8.68773
   C        6.76536        -1.88593        -9.53965
   N        6.12913        -2.47194       -10.29620
   C        8.97966        -1.42276        -9.07472
   N       10.04249        -1.66384        -9.43681
   C        5.94033        -0.04065        -7.20855
   C        4.83648        -0.77770        -7.57878
   C      -13.54548        -9.59640        -6.00041
   O      -12.36280        -9.31469        -6.10001
   C      -14.09804       -10.92822        -5.68837
   C      -13.43341       -12.09027        -5.42680
   C      -14.17865       -13.25477        -5.13367
   C      -15.60134       -13.18572        -5.12068
   C      -16.26006       -11.96547        -5.40021
   C      -15.51846       -10.84919        -5.68064
   C      -15.90758        -9.47345        -5.99066
   C      -17.20284        -9.03231        -6.10934
   C      -17.60230        -7.71749        -6.42198
   N      -18.01241        -6.67331        -6.67261
   C      -18.33531        -9.85491        -5.94057
   N      -19.29915       -10.46719        -5.81821
   C      -14.69410        -8.70431        -6.15463
   C      -14.62812        -7.34583        -6.37542
   C      -13.52857        -6.50080        -6.52445
   S      -11.83027        -6.96585        -6.53263
   C      -11.39163        -5.32780        -6.73910
   C      -12.48866        -4.44350        -6.78060
   C      -13.68355        -5.11063        -6.68403
   C      -10.21086        -4.57064        -6.87216
   C      -10.52902        -3.21791        -6.99197
   C      -12.02693        -3.01245        -6.95851
   S       -8.51764        -4.84786        -6.89042
   C       -8.22223        -3.12280        -7.01474
   C       -9.40263        -2.40460        -7.05243
   C       -6.86386        -2.64494        -7.04152
   C       -6.51539        -1.32727        -6.66084
   C       -5.18277        -0.96212        -6.64515
   C       -4.15606        -1.83810        -7.01522
   C       -4.51222        -3.13863        -7.44076
   C       -5.84139        -3.51468        -7.42603
   C       -2.78058        -1.42886        -6.95221
   S       -1.51255        -2.43231        -7.60680
   C       -0.33750        -1.27005        -7.13951
   C       -0.89553        -0.17671        -6.47131
   C       -2.27697        -0.26363        -6.38770
   C        1.05460        -1.08304        -7.23726
   C        1.40062         0.13434        -6.62164
   C        0.17046         0.81578        -6.06260
   S        2.40243        -1.90676        -7.87703
   C        3.47702        -0.62496        -7.29140
   C        2.75566         0.37822        -6.63872
   O       -7.52754        -0.49582        -6.30302
   C        0.32469         0.90787        -4.53094
   C       -0.87382         1.49430        -3.79746
   C      -12.37309        -2.12726        -5.74518
   C      -13.85898        -1.86626        -5.53967
   O       -3.48902        -3.92455        -7.85558
   C       -3.69372        -5.29202        -8.15909
   C       -3.86991        -6.14799        -6.91009
   C       -7.23448         0.79010        -5.78959
   C       -8.55666         1.43304        -5.39969
   C      -12.57283        -2.48036        -8.29831
   C      -12.12477        -1.07043        -8.65904
   C       -0.11298         2.16794        -6.74524
   C        0.90128         3.26415        -6.44816
   C       11.64247         1.42547        -5.88214
   C       12.26113         2.29638        -5.02982
   C       11.50463         3.15544        -4.20905
   C       10.13885         3.13185        -4.25166
   C      -16.34075       -14.34764        -4.82293
   C      -15.69776       -15.52262        -4.55059
   C      -14.29089       -15.58952        -4.56428
   C      -13.54548       -14.47996        -4.85007
   F      -16.40317       -16.62654        -4.26622
   F       13.59980         2.34083        -4.96626
   F       12.13773         4.00002        -3.38112
   F      -13.68577       -16.75515        -4.29286
   H        7.46374         2.84041        -4.55426
   H       10.19574        -0.16846        -7.44205
   H        5.04410        -1.65010        -8.18768
   H      -12.35451       -12.12093        -5.44018
   H      -17.33748       -11.94824        -5.38022
   H      -15.57444        -6.82125        -6.42849
   H      -14.66097        -4.66341        -6.72260
   H       -9.41545        -1.33500        -7.12316
   H       -4.91319         0.03619        -6.34779
   H       -6.12744        -4.50762        -7.73418
   H       -2.90083         0.48265        -5.93236
   H        3.25163         1.22366        -6.19974
   H        0.50897        -0.10244        -4.15647
   H        1.21361         1.50198        -4.31651
   H       -1.75612         0.87676        -3.94198
   H       -0.66062         1.53304        -2.73154
   H       -1.09082         2.50407        -4.13469
   H      -11.97184        -2.61800        -4.85453
   H      -11.84745        -1.17770        -5.85787
   H      -14.39742        -2.79552        -5.37868
   H      -13.99745        -1.24019        -4.66090
   H      -14.29404        -1.35172        -6.39183
   H       -4.54247        -5.40995        -8.84257
   H       -2.78182        -5.58355        -8.68668
   H       -4.75572        -5.85211        -6.35353
   H       -3.96717        -7.19135        -7.19539
   H       -3.00281        -6.03834        -6.26391
   H       -6.58035         0.70538        -4.91146
   H       -6.72883         1.39711        -6.55305
   H       -9.06521         0.81578        -4.66404
   H       -8.37842         2.41753        -4.97755
   H       -9.19552         1.53284        -6.27310
   H      -12.24762        -3.16799        -9.08331
   H      -13.66227        -2.52009        -8.26181
   H      -11.04335        -1.01918        -8.74921
   H      -12.55771        -0.78827        -9.61625
   H      -12.45097        -0.34821        -7.91568
   H       -0.14288         1.99191        -7.82375
   H       -1.10759         2.50035        -6.44264
   H        1.89849         2.96681        -6.75749
   H        0.63078         4.16364        -6.99697
   H        0.92314         3.50878        -5.39006
   H       12.23690         0.77530        -6.50485
   H        9.57356         3.79567        -3.61651
   H      -17.41895       -14.31344        -4.80847
   H      -12.46885       -14.54762        -4.85615
*
