# ORCA input file
# SCF done       -198.734887180358          0.000862188662
! wb97x-d3 def2-SVP def2/J RIJCOSX Grid4 TightSCF
%maxcore 5000
%tddft
    Mode sTDA
    Ethresh 5.0
    maxcore 5000
end

%pal
  nprocs 6
  end
* xyz 1 2
   C        0.19106         1.00111         0.35945
   C        0.34416         1.96118        -0.65191
   S       -0.97000         1.95129        -1.80833
   C       -1.64172         0.57673        -1.00108
   C       -0.94382         0.21214         0.15925
   N       -1.43791        -0.96497         0.64939
   C       -0.73793        -1.67516         1.69248
   C       -2.41418        -1.40623        -0.21765
   C       -2.56211        -0.44876        -1.26250
   C       -3.32434        -0.73850        -2.41812
   N       -3.58504         0.04204        -3.45379
   S       -4.35664        -0.83144        -4.57650
   N       -4.38039        -2.24413        -3.78897
   C       -3.79521        -2.08189        -2.61349
   C       -3.60589        -3.03053        -1.58325
   C       -3.06449        -2.65847        -0.32817
   N       -3.08121        -3.75556         0.52942
   C       -3.35055        -3.63972         1.95427
   C       -2.49812        -4.54728         2.83443
   C       -3.50649        -4.83722        -0.21586
   C       -3.82753        -4.41543        -1.51607
   S       -4.17989        -5.69404        -2.61805
   C       -3.83521        -6.83214        -1.34712
   C       -3.54067        -6.23261        -0.11076
   C       -1.01918        -1.08592         3.07241
   C       -2.51184       -11.88101        -1.59485
   C       -2.30089       -12.52541        -2.79207
   C       -1.62098       -13.79411        -2.94909
   C       -1.18573       -14.64045        -1.96116
   C       -0.52086       -15.86153        -2.20222
   N        0.02509       -16.86338        -2.32755
   C       -1.33317       -14.43179        -0.57422
   N       -1.41016       -14.33405         0.56825
   C       -1.45482       -14.02423        -4.38598
   C       -0.82135       -15.03915        -5.08541
   C       -0.80751       -14.96525        -6.47083
   F       -0.19348       -15.93118        -7.16338
   C       -1.41064       -13.91048        -7.15590
   C       -2.04826       -12.89284        -6.46425
   C       -2.05752       -12.96563        -5.08599
   C       -2.63390       -12.00697        -4.11963
   O       -3.25896       -10.99939        -4.39390
   S       -3.15424        -7.41091         1.11627
   C       -3.25882        -8.68649        -0.07115
   C       -3.64549        -8.21615        -1.33629
   C       -2.91361       -10.02711        -0.03430
   C       -2.98974       -10.59740        -1.32087
   S       -3.57907        -9.44919        -2.53052
   F       -1.36875       -13.87850        -8.49328
   C        4.53074         1.78329        -1.72955
   O        3.48693         1.50233        -2.27795
   C        5.88984         1.55101        -2.26947
   C        6.23687         1.00241        -3.48799
   C        7.58656         0.85538        -3.76497
   C        8.55024         1.24811        -2.83550
   F        9.84536         1.08356        -3.12580
   C        8.20104         1.79915        -1.61111
   C        6.85274         1.95062        -1.32814
   C        6.16442         2.46771        -0.14695
   C        6.75411         3.05902         0.93834
   C        6.03492         3.62510         2.01272
   N        5.50279         4.11871         2.90204
   C        8.14802         3.20170         1.09774
   N        9.27413         3.33155         1.27724
   C        4.74290         2.30152        -0.36042
   C        3.77709         2.28758         0.61267
   F        7.96930         0.32610        -4.93300
   C        1.58909         2.60194        -0.65358
   C        2.39791         2.12209         0.36955
   S        1.54865         0.97983         1.41960
   C        1.94295         3.72125        -1.57214
   C        0.96205         4.88484        -1.42578
   C       -2.52287       -10.73599         1.22108
   C       -3.68771       -11.57038         1.76090
   H       -1.00975        -2.72589         1.63986
   H        0.33562        -1.59303         1.48902
   H       -3.20715        -2.59396         2.22528
   H       -4.40769        -3.87995         2.12510
   H       -2.81312        -5.58145         2.74254
   H       -1.44423        -4.49336         2.57549
   H       -2.61551        -4.24733         3.87219
   H       -2.08325        -1.08561         3.29672
   H       -0.50321        -1.66703         3.83090
   H       -0.66021        -0.06108         3.12063
   H       -2.18909       -12.41498        -0.71166
   H       -0.33770       -15.87426        -4.60619
   H       -2.51332       -12.07329        -6.98843
   H        5.48839         0.69514        -4.20083
   H        8.98199         2.07889        -0.92309
   H        4.08717         2.25710         1.65102
   H        2.95574         4.06499        -1.35920
   H        1.91805         3.34688        -2.59839
   H        0.96654         5.25858        -0.40407
   H        1.25170         5.69421        -2.09044
   H       -0.04803         4.57492        -1.68007
   H       -2.24232        -9.98665         1.96480
   H       -1.66222       -11.38557         1.05371
   H       -3.39023       -12.06392         2.68151
   H       -4.54703       -10.93568         1.96512
   H       -3.98110       -12.33143         1.04245
*
