# ORCA input file
# SCF done       -265.726196149714          0.000632587222
! wb97x-d3 def2-SVP def2/J RIJCOSX Grid4 TightSCF
%maxcore 5000
%tddft
    Mode sTDA
    Ethresh 5.0
    maxcore 5000
end

%pal
  nprocs 6
  end
* xyz 0 1
   C       -1.49357        -4.26022        -2.18363
   C       -1.00595        -3.45640        -1.16606
   S       -0.33570        -4.62371        -3.41877
   C        0.84765        -3.67830        -2.55213
   C        0.32946        -3.11582        -1.36253
   C        2.17381        -3.37489        -2.76938
   C        2.71146        -2.57796        -1.75075
   S        1.51446        -2.20728        -0.51079
   C        4.04742        -2.16564        -1.77163
   C        4.76636        -1.40915        -0.87533
   C        6.16518        -1.05558        -1.00258
   C        6.52589        -0.26464         0.17646
   C        5.39245        -0.13252         0.99522
   C        4.25157        -0.83495         0.36983
   C        7.72390         0.31596         0.56203
   C        7.75415         1.01345         1.76101
   C        6.62276         1.13713         2.56706
   C        5.42096         0.56093         2.18839
   F        6.69847         1.81860         3.71730
   F        8.90190         1.58029         2.15053
   O        3.12336        -0.90403         0.82103
   C        7.02461        -1.38193        -2.01999
   C        8.38023        -0.99232        -2.06519
   C        6.70425        -2.14240        -3.16428
   N        6.53595        -2.75077        -4.12428
   N        9.48832        -0.70944        -2.16315
   C      -10.39771        -7.32088        -0.59553
   C      -11.51390        -7.27516         0.20603
   S      -10.21431        -8.90469        -1.37341
   C      -11.61113        -9.51023        -0.56932
   C      -12.19039        -8.50876         0.21574
   C      -12.23158       -10.74592        -0.47099
   C      -13.31463       -10.71228         0.39694
   S      -13.57406        -9.09935         1.05252
   C      -14.20048       -11.74214         0.76156
   C      -14.03180       -13.09652         0.67042
   C      -12.86781       -13.93008         0.48599
   C      -13.34396       -15.26016         0.09953
   C      -14.73940       -15.30549         0.26321
   C      -15.22730       -13.97462         0.69561
   O      -16.36099       -13.65712         0.97087
   C      -11.57906       -13.64268         0.85811
   C      -10.50005       -14.53897         0.71920
   N       -9.58127       -15.21795         0.60789
   C      -11.19212       -12.45308         1.50712
   N      -10.82390       -11.52582         2.07491
   C      -12.65800       -16.38283        -0.33367
   C      -13.39034       -17.53301        -0.58876
   C      -14.77306       -17.57522        -0.40904
   C      -15.46582       -16.45418         0.02047
   F      -15.43799       -18.71003        -0.65807
   F      -12.75046       -18.62569        -1.02043
   C       -9.99513        -4.64618         0.99356
   C       -9.01873        -5.34474         0.16487
   C       -9.28827        -6.41346        -0.74519
   C       -9.46757        -3.35471         1.53529
   C      -11.30968        -4.88924         1.21962
   C       -9.00431        -3.26364         2.84292
   C       -8.47264        -2.07775         3.31580
   C       -8.38940        -0.95762         2.49845
   C       -8.87126        -1.04830         1.19841
   C       -9.40264        -2.23076         0.71992
   C      -12.10785        -6.14221         0.98012
   C      -13.47583        -5.82401         0.41782
   C      -14.13235        -4.72567         0.80087
   C      -13.45113        -3.79871         1.67582
   C      -12.12109        -3.86690         1.85812
   C       -7.83402         0.33686         3.01943
   C      -15.51196        -4.38311         0.32189
   C       -7.71808        -4.83346         0.18212
   C       -6.77122        -5.22752        -0.74337
   C       -7.12647        -6.12861        -1.77517
   C       -8.36372        -6.73592        -1.74457
   C       -5.40717        -4.87115        -0.96681
   C       -5.01030        -5.54638        -2.15495
   N       -6.06976        -6.28068        -2.63524
   C       -6.03459        -7.17173        -3.76509
   C       -5.58244        -8.57448        -3.36307
   C       -4.51813        -4.07032        -0.25390
   C       -3.24614        -3.94273        -0.75078
   C       -2.86260        -4.59995        -1.95027
   C       -3.72887        -5.41160        -2.66683
   C       -2.07766        -3.18249        -0.14683
   C       -2.28365        -1.68340        -0.03877
   C       -3.33439        -1.03610        -0.67134
   C       -3.48130         0.33469        -0.55395
   C       -2.57914         1.09104         0.18103
   C       -1.51507         0.43923         0.79214
   C       -1.36660        -0.92943         0.68447
   C       -1.78183        -3.79740         1.21131
   C       -0.89374        -4.85463         1.34652
   C       -0.67907        -5.43747         2.58187
   C       -1.35304        -4.99010         3.70963
   C       -2.24582        -3.93569         3.56773
   C       -2.46120        -3.34751         2.33638
   C       -8.95128         1.20408         3.60254
   C      -15.47223        -3.23358        -0.68547
   C       -2.78125         2.56819         0.35956
   C       -3.65446         2.83785         1.58703
   C       -1.08819        -5.59842         5.05641
   C        0.05746        -4.86599         5.75778
   H        2.75262        -3.70380        -3.61374
   H        4.58368        -2.51847        -2.64423
   H        8.62706         0.25074        -0.02177
   H        4.54285         0.65257         2.80742
   H      -11.93831       -11.61921        -1.02452
   H      -15.18015       -11.42956         1.11014
   H      -11.59136       -16.39767        -0.48791
   H      -16.53466       -16.48508         0.15931
   H       -9.05441        -4.13137         3.48519
   H       -8.10862        -2.02390         4.33212
   H       -8.82167        -0.18418         0.55113
   H       -9.76515        -2.29325        -0.29606
   H      -12.30066        -6.54091         1.99786
   H      -13.92339        -6.54633        -0.24675
   H      -14.02568        -3.00232         2.12505
   H      -11.61989        -3.09287         2.41782
   H       -7.09134         0.13714         3.79452
   H       -7.34301         0.87999         2.20900
   H      -15.96825        -5.25904        -0.14238
   H      -16.12613        -4.09132         1.17736
   H       -7.43370        -4.10548         0.92332
   H       -8.62011        -7.49135        -2.47196
   H       -7.03617        -7.21065        -4.20171
   H       -5.35391        -6.75588        -4.51244
   H       -6.26293        -8.99339        -2.62549
   H       -5.56568        -9.22529        -4.23276
   H       -4.58482        -8.54010        -2.93165
   H       -4.82653        -3.57857         0.65518
   H       -3.40038        -5.91042        -3.56526
   H       -4.04742        -1.60152        -1.25337
   H       -4.31137         0.82286        -1.04505
   H       -0.79290         1.00815         1.35931
   H       -0.53714        -1.41870         1.17366
   H       -0.36315        -5.23066         0.48384
   H        0.01982        -6.25727         2.66835
   H       -2.78263        -3.57217         4.43252
   H       -3.15582        -2.52452         2.24983
   H       -9.44254         0.68633         4.42342
   H       -8.54933         2.14335         3.97515
   H       -9.69707         1.42251         2.84135
   H      -14.87770        -3.51363        -1.55232
   H      -16.47729        -2.98643        -1.01894
   H      -15.02732        -2.34745        -0.23855
   H       -1.81634         3.06186         0.48899
   H       -3.26466         2.98734        -0.52526
   H       -3.18098         2.43997         2.48177
   H       -3.80687         3.90637         1.71994
   H       -4.62480         2.35935         1.47296
   H       -1.98669        -5.53628         5.67369
   H       -0.82485        -6.65178         4.94148
   H       -0.19195        -3.81605         5.89353
   H        0.25066        -5.30691         6.73293
   H        0.96561        -4.92666         5.16233
*
