# ORCA input file
# SCF done       -260.232336317123          0.000269775102
! wb97x-d3 def2-SVP def2/J RIJCOSX Grid4 TightSCF
%maxcore 5000
%tddft
    Mode sTDA
    Ethresh 5.0
    maxcore 5000
end

%pal
  nprocs 6
  end
* xyz 0 1
   C       -1.86714        -0.75178        -0.22136
   C       -1.54530         0.60526        -0.26629
   C       -3.36036        -0.95434        -0.17857
   C       -3.82432         0.48099        -0.15589
   C       -2.74056         1.35713        -0.23872
   C       -3.93277        -1.60750        -1.42628
   C       -3.71384        -1.75631         1.05996
   C       -5.03393         1.16089        -0.09692
   C       -4.85787         2.56110        -0.12701
   S       -3.17751         3.02917        -0.24754
   C       -4.12167        -1.14701         2.23637
   C       -4.40746        -1.91100         3.35364
   C       -4.27782        -3.29251         3.32762
   C       -3.85520        -3.89458         2.14877
   C       -3.57651        -3.13840         1.02766
   C       -3.18155        -1.78303        -2.57802
   C       -3.75277        -2.35197        -3.70246
   C       -5.08400        -2.74367        -3.70733
   C       -5.83232        -2.55589        -2.55141
   C       -5.26708        -1.99506        -1.42349
   C       -8.44960         2.91880         0.21218
   C       -9.64943         2.26109         0.37382
   C      -10.93630         2.90607         0.52148
   C      -11.93848         1.85097         0.68986
   C      -11.29318         0.60458         0.63805
   C       -9.84305         0.81232         0.43392
   O       -9.00462        -0.06497         0.33475
   C      -11.20913         4.25118         0.50996
   C      -12.50155         4.79694         0.65897
   N      -13.52338         5.30704         0.77479
   C      -10.26481         5.28609         0.34938
   N       -9.56376         6.18879         0.22761
   C      -13.31013         1.90815         0.87851
   C      -14.00036         0.71166         1.01006
   C      -13.34979        -0.52048         0.95593
   C      -11.97846        -0.58635         0.76769
   F      -15.32536         0.74643         1.19409
   F      -14.05614        -1.65062         1.08771
   S       -6.69135         0.72858         0.05564
   C       -7.14767         2.43616         0.08020
   C       -6.03058         3.28983        -0.03737
   S        0.15645         0.92945        -0.28264
   C        0.46189        -0.77853        -0.20441
   C       -0.72608        -1.54278        -0.17654
   C        8.23567        -5.03335         0.68228
   C        8.80158        -5.98447         1.49167
   C       10.17382        -6.43380         1.46463
   C       10.40654        -7.22061         2.67486
   C        9.21290        -7.27552         3.41377
   C        8.15838        -6.50267         2.71797
   C       11.54145        -7.86237         3.14484
   C       11.44990        -8.54778         4.34734
   C       10.26033        -8.59686         5.07438
   C        9.12334        -7.95284         4.61339
   O        7.05110        -6.25485         3.14289
   C       11.07149        -6.23797         0.44678
   C       12.39702        -6.71793         0.45929
   C       10.77478        -5.55953        -0.75403
   N       10.59160        -5.04305        -1.76303
   N       13.48587        -7.07912         0.42144
   F       10.21680        -9.27219         6.22967
   F       12.53346        -9.17368         4.82049
   C        1.60222        -1.57070        -0.14635
   C        1.27734        -2.92413        -0.05771
   S       -0.42264        -3.24985        -0.07404
   C        3.09605        -1.36681        -0.09282
   C        3.55424        -2.79424         0.08159
   C        2.46978        -3.67160         0.06945
   C        3.69745        -0.84448        -1.38671
   C        3.41816        -0.45097         1.07290
   C        2.98082        -0.81618        -2.57313
   C        3.58123        -0.37715        -3.73958
   C        4.90842         0.02848        -3.75195
   C        5.62158        -0.00826        -2.55981
   C        5.02637        -0.43942        -1.39089
   C        3.77882        -0.94651         2.31766
   C        4.02165        -0.07970         3.36531
   C        3.90268         1.29805         3.20950
   C        3.53167         1.78351         1.96317
   C        3.29191         0.92086         0.90904
   C        5.54526         0.54048        -5.01101
   C        5.36314         2.05562        -5.12312
   C        4.19017         2.18498         4.39234
   C        3.83933         3.65588         4.20865
   C        4.75521        -3.47806         0.22142
   C        4.58034        -4.87002         0.34325
   S        2.90337        -5.33431         0.23297
   S        6.41991        -3.05828         0.29060
   C        6.85962        -4.74795         0.56854
   C        5.75588        -5.59877         0.53853
   C       -6.06137         4.78291         0.00189
   C       -6.09102         5.28864         1.44718
   C        5.79777        -7.09342         0.51567
   C        4.94643        -7.72274         1.61826
   C       -5.68864        -3.40085        -4.91404
   C       -5.52975        -4.92034        -4.82860
   C       -4.63627        -4.12400         4.52483
   C       -6.09754        -4.57032         4.44228
   H       -4.22207        -0.07275         2.28518
   H       -4.73337        -1.42253         4.26078
   H       -3.74265        -4.96834         2.10782
   H       -3.25828        -3.62307         0.11587
   H       -2.14565        -1.47770        -2.60446
   H       -3.15289        -2.48757        -4.59115
   H       -6.87203        -2.84790        -2.53363
   H       -5.86351        -1.85866        -0.53355
   H       -8.50970         3.99821         0.19354
   H      -13.86178         2.83228         0.92818
   H      -11.47001        -1.53629         0.72586
   H        8.89214        -4.38672         0.11131
   H       12.48450        -7.84731         2.62347
   H        8.20346        -7.98556         5.17513
   H        1.94959        -1.13722        -2.59300
   H        3.00842        -0.35678        -4.65571
   H        6.65688         0.29963        -2.54713
   H        5.59337        -0.45926        -0.47142
   H        3.87240        -2.01111         2.47414
   H        4.30793        -0.48085         4.32724
   H        3.42423         2.84330         1.79757
   H        3.01064         1.32007        -0.05494
   H        6.61125         0.30566        -5.00743
   H        5.09126         0.05827        -5.87889
   H        5.82062         2.55558        -4.27236
   H        5.82530         2.42729        -6.03446
   H        4.30561         2.30971        -5.14092
   H        3.64176         1.79202         5.25349
   H        5.25541         2.09934         4.63018
   H        2.78842         3.77307         3.95374
   H        4.02791         4.19572         5.13395
   H        4.44456         4.10771         3.42633
   H       -5.15987         5.15751        -0.48761
   H       -6.92708         5.17246        -0.53529
   H       -5.21100         4.94624         1.98693
   H       -6.10651         6.37455         1.45628
   H       -6.97732         4.92774         1.96337
   H        5.41395        -7.41934        -0.45709
   H        6.82941        -7.43495         0.60203
   H        3.89774        -7.46856         1.48795
   H        5.04710        -8.80457         1.58655
   H        5.27403        -7.36640         2.59042
   H       -6.75007        -3.15342        -4.97639
   H       -5.19847        -3.03790        -5.81961
   H       -6.02286        -5.30223        -3.93756
   H       -5.96877        -5.39838        -5.70105
   H       -4.47675        -5.18849        -4.77815
   H       -3.99302        -5.00517         4.56949
   H       -4.48732        -3.54454         5.43800
   H       -6.26189        -5.16248         3.54492
   H       -6.36135        -5.17149         5.30915
   H       -6.75540        -3.70498         4.40518
*
