# ORCA input file
# SCF done       -221.285393588311          0.000484411139
! wb97x-d3 def2-SVP def2/J RIJCOSX Grid4 TightSCF
%maxcore 5000
%tddft
    Mode sTDA
    Ethresh 5.0
    maxcore 5000
end

%pal
  nprocs 6
  end
* xyz 0 1
   C        5.23573        -7.21232        -3.50810
   O        4.22851        -7.46296        -2.87581
   C        5.36000        -7.31675        -4.97822
   C        4.38930        -7.66834        -5.89304
   C        4.73133        -7.68908        -7.23913
   C        6.03003        -7.35936        -7.63974
   C        7.00548        -7.00942        -6.71202
   C        6.66747        -6.98905        -5.36885
   C        7.44656        -6.67569        -4.17191
   C        8.79319        -6.41462        -4.16870
   C        9.60331        -6.18507        -3.03616
   N       10.34936        -6.00465        -2.18113
   C        9.59096        -6.37095        -5.33219
   N       10.30199        -6.31507        -6.23162
   C        6.55295        -6.75200        -3.02941
  Cl        6.43999        -7.38264        -9.30794
   C        6.92357        -6.37348        -1.75900
  Cl        3.55275        -8.11920        -8.41226
   C       -0.48688         1.79809        17.33562
   O       -0.93036         0.70862        17.03122
   C       -1.12689         2.74005        18.28001
   C       -2.32388         2.59460        18.94991
   C       -2.73977         3.62439        19.78422
   C       -1.95412         4.77203        19.92997
   C       -0.74572         4.91081        19.25539
   C       -0.32787         3.88480        18.42387
   C        0.86694         3.72618        17.59615
   C        1.91746         4.60801        17.57158
   C        3.12210         4.46165        16.85113
   N        4.14060         4.42842        16.32035
   C        1.95638         5.80930        18.31132
   N        2.05712         6.80292        18.87740
   C        0.74322         2.47090        16.87657
  Cl       -2.48232         6.04271        20.95865
   C        1.61849         2.08188        15.88832
  Cl       -4.22519         3.48551        20.63549
   C        1.67735         0.93553        15.08754
   S        2.93614         0.92928        13.83953
   C        2.42493        -0.60927        13.31507
   C        1.34649        -1.10701        14.06789
   C        0.93304        -0.24655        15.06011
   C        2.74852        -1.54029        12.30777
   C        1.88441        -2.63631        12.40744
   C        0.94303        -2.47860        13.57682
   S        3.82348        -1.65476        10.97346
   C        3.11084        -3.18976        10.53392
   C        2.08655        -3.56092        11.39442
   C        3.58221        -3.87858         9.36849
   C        3.22501        -5.17986         9.02131
   C        3.64207        -5.79321         7.80188
   C        4.38932        -5.09946         6.85027
   C        4.88478        -3.83278         7.24817
   C        4.48327        -3.22920         8.48306
   N        5.70653        -3.04964         6.55467
   S        5.96480        -1.69455         7.38265
   N        5.03321        -2.03192         8.65201
   C        4.58007        -5.52391         5.48708
   S        6.04386        -5.13104         4.62558
   C        5.39278        -5.83891         3.20059
   C        4.09654        -6.32192         3.38248
   C        3.63931        -6.14481         4.68262
   C        5.77005        -6.03922         1.85597
   C        4.70874        -6.65855         1.17029
   C        3.55544        -6.92537         2.10806
   S        7.10376        -5.70931         0.84918
   C        6.23463        -6.38291        -0.54076
   C        4.96666        -6.83727        -0.17120
   O        2.41929        -5.92637         9.84389
   O        3.23522        -7.08108         7.66964
   C       -0.53135        -2.52692        13.14762
   C        1.24496        -3.49529        14.70090
   C        3.11603        -6.81739        10.71071
   C        4.07183        -8.03208         7.02716
   C        2.26441        -6.23622         1.63935
   C        3.34496        -8.43754         2.34681
   C       -0.87837        -1.45808        12.11796
   C        1.10753        -4.95650        14.29514
   C        2.93336        -9.23134         1.11454
   C        2.40745        -4.72141         1.54824
   C        3.93985        -9.35704         7.76605
   C        2.10736        -7.78174        11.30864
   H        3.39187        -7.91878        -5.56806
   H        7.99359        -6.76042        -7.06161
   H        7.92858        -5.97877        -1.66803
   H       -2.91927         1.70397        18.82552
   H       -0.17072         5.81134        19.39331
   H        2.40229         2.79358        15.65729
   H        0.12392        -0.42164        15.74454
   H        1.50748        -4.45098        11.23763
   H        2.65206        -6.38882         5.03287
   H        4.28964        -7.25590        -0.89243
   H       -0.74239        -3.50938        12.72421
   H       -1.15361        -2.39286        14.03418
   H        2.26659        -3.32090        15.04800
   H        0.57110        -3.28123        15.53256
   H        3.88094        -7.36613        10.14973
   H        3.61922        -6.23649        11.49909
   H        3.75925        -8.16207         5.98383
   H        5.11196        -7.68554         7.03164
   H        1.99894        -6.62642         0.65687
   H        1.46290        -6.48577         2.33762
   H        4.27937        -8.84882         2.73836
   H        2.58203        -8.54947         3.12088
   H       -0.26902        -1.57146        11.22395
   H       -1.92419        -1.54268        11.83313
   H       -0.71437        -0.46253        12.52354
   H        1.80290        -5.20071        13.49683
   H        1.33356        -5.59119        15.14906
   H        0.09726        -5.18285        13.96551
   H        3.68401        -9.15448         0.33366
   H        2.82698       -10.28045         1.38152
   H        1.98201        -8.88600         0.72062
   H        3.19625        -4.45180         0.84974
   H        1.47679        -4.28122         1.19888
   H        2.64618        -4.29294         2.51916
   H        2.89374        -9.64613         7.81314
   H        4.49849       -10.12458         7.23829
   H        4.32290        -9.27621         8.77998
   H        1.61750        -8.33616        10.51334
   H        2.61113        -8.47621        11.97497
   H        1.35160        -7.23777        11.86841
*
