# ORCA input file
# SCF done       -252.458246303959          0.000302169800
! wb97x-d3 def2-SVP def2/J RIJCOSX Grid4 TightSCF
%maxcore 5000
%tddft
    Mode sTDA
    Ethresh 5.0
    maxcore 5000
end

%pal
  nprocs 6
  end
* xyz 0 1
   N        2.47304         2.33979         3.68795
   C        1.13894         2.52910         4.00947
   C        0.15587         1.88873         3.11861
   C        0.58421         1.13951         2.00314
   C        1.95558         0.96714         1.75253
   C        2.95922         1.56648         2.64711
   O        4.15270         1.41056         2.48667
   O        0.81737         3.18788         4.97615
   C       -0.37726         0.57712         1.13093
   C        0.06411        -0.26618         0.07875
   C        1.42942        -0.35938        -0.17950
   C        2.36355         0.25637         0.63712
   C       -1.18738         1.96473         3.40511
   C       -2.15261         1.40887         2.55165
   C       -1.75966         0.85969         1.32005
   C       -2.63957         0.57896         0.20199
   C       -2.23918        -0.40196        -0.74049
   C       -0.93361        -0.95980        -0.71287
   C       -3.14944        -0.82713        -1.73683
   C       -2.80628        -1.88016        -2.60410
   C       -1.59886        -2.52524        -2.44466
   C       -0.66076        -2.08723        -1.50195
   C       -3.83218         1.29854        -0.03103
   C       -4.70186         0.88351        -1.04176
   C       -4.39306        -0.18738        -1.85614
   C       -5.35729        -0.61309        -2.88275
   N       -4.95909        -1.65058        -3.70614
   C       -3.75127        -2.32798        -3.63966
   O       -3.50355        -3.23862        -4.40306
   O       -6.44123        -0.08062        -3.01915
   N        8.81110        -1.32476        -2.88142
   C        7.54799        -0.99114        -2.41812
   C        6.82113        -2.03982        -1.68573
   C        7.38957        -3.31372        -1.51890
   C        8.65987        -3.60215        -2.05862
   C        9.41472        -2.56681        -2.78284
   O       10.50440        -2.77426        -3.27704
   O        7.08543         0.11500        -2.60976
   C        6.69673        -4.31369        -0.79796
   C        7.32929        -5.55876        -0.52653
   C        8.48143        -5.88098        -1.25593
   C        9.15573        -4.88371        -1.97244
   C        5.58286        -1.76607        -1.12954
   C        4.86560        -2.76332        -0.48939
   C        5.37178        -4.05433        -0.36254
   C        4.62517        -5.13653         0.24966
   C        5.37596        -6.19495         0.82538
   C        6.74881        -6.36595         0.52305
   C        4.74332        -7.08332         1.72617
   C        5.50933        -8.04573         2.40421
   C        6.87937        -8.08558         2.23635
   C        7.51513        -7.24241         1.31856
   C        3.22820        -5.15143         0.37864
   C        2.61698        -6.06354         1.24698
   C        3.35778        -6.98917         1.94987
   C        2.69205        -7.90779         2.88735
   N        3.49827        -8.85843         3.49359
   C        4.86651        -8.98902         3.33406
   O        5.49010        -9.84182         3.93377
   O        1.50094        -7.86130         3.11689
   C        3.45675         2.96858         4.56495
   C        3.78403         2.07701         5.75561
   C       -5.91215        -2.09680        -4.71849
   C       -6.81307        -3.19727        -4.17325
   C        2.84878        -9.77982         4.42185
   C        2.83004        -9.21125         5.83468
   C        9.54931        -0.28613        -3.59399
   C        9.24478        -0.31903        -5.08606
   C        0.54004        -2.89385        -1.34081
   S        1.00626        -3.47276         0.23273
   C        2.36687        -4.31547        -0.44249
   C        2.41754        -4.16612        -1.80213
   C        1.37163        -3.37955        -2.31195
   O        8.85562        -7.19791         1.16343
   C        9.69888        -7.91503         2.05204
   O       10.99087        -7.48496         1.89517
   C       11.58923        -7.86043         0.66418
   O        9.00670        -7.13705        -1.40042
   C        8.11426        -8.21660        -1.57363
   O        7.04855        -7.93131        -2.40716
   C        7.40728        -7.71362        -3.76013
   O       -3.43156         1.46279         3.02192
   C       -4.24822         0.31989         2.93952
   O       -4.05347        -0.55658         3.99592
   C       -2.86969        -1.32416         3.93087
   O       -4.04424         2.36940         0.76953
   C       -5.13129         3.25572         0.61399
   O       -4.85256         4.33705        -0.20152
   C       -4.88716         4.10372        -1.59636
   H        1.77193        -0.90756        -1.04288
   H        3.42031         0.17996         0.43159
   H       -1.51843         2.46133         4.30457
   H       -1.37881        -3.38054        -3.06561
   H       -5.64731         1.37256        -1.21410
   H       10.08434        -5.13042        -2.46540
   H        5.18591        -0.76682        -1.22345
   H        3.90266        -2.52482        -0.06769
   H        7.43408        -8.80466         2.81803
   H        1.54470        -6.04792         1.37738
   H        4.35225         3.15027         3.96852
   H        3.03173         3.91415         4.90607
   H        4.19048         1.12777         5.41418
   H        4.52070         2.56655         6.38613
   H        2.88771         1.89297         6.34310
   H       -6.50593        -1.22939        -5.01155
   H       -5.33583        -2.46468        -5.56899
   H       -7.37646        -2.83243        -3.31748
   H       -7.51165        -3.51238        -4.94294
   H       -6.21659        -4.05448        -3.86978
   H        1.83038        -9.93882         4.06326
   H        3.40868       -10.71610         4.39631
   H        2.28304        -8.27153         5.85328
   H        2.34235        -9.91336         6.50477
   H        3.84570        -9.04126         6.18430
   H        9.25263         0.67353        -3.16743
   H       10.61174        -0.46468        -3.41999
   H        8.18306        -0.15568        -5.25560
   H        9.80401         0.46374        -5.59048
   H        9.53149        -1.28033        -5.50606
   H        3.17764        -4.62183        -2.41076
   H        1.25172        -3.14774        -3.35512
   H        9.42335        -7.70081         3.09326
   H        9.60067        -8.99998         1.84755
   H       11.03337        -7.45510        -0.18340
   H       12.59412        -7.44690         0.68382
   H       11.63854        -8.95223         0.58105
   H        8.75412        -9.01771        -1.97759
   H        7.66616        -8.54516        -0.62732
   H        7.93053        -8.58572        -4.16542
   H        6.47437        -7.56059        -4.29708
   H        8.04250        -6.82961        -3.86962
   H       -5.27478         0.68461         3.03675
   H       -4.11705        -0.20490         1.97819
   H       -1.97781        -0.71166         4.09875
   H       -2.78063        -1.82770         2.96032
   H       -2.94969        -2.06623         4.72200
   H       -6.03981         2.72029         0.29259
   H       -5.27942         3.67330         1.61545
   H       -4.08863         3.42738        -1.91762
   H       -5.85635         3.69786        -1.90601
   H       -4.73994         5.07661        -2.06027
*
