# ORCA input file
# SCF done       -176.651954909134          0.000682014505
! wb97x-d3 def2-SVP def2/J RIJCOSX Grid4 TightSCF
%maxcore 5000
%tddft
    Mode sTDA
    Ethresh 5.0
    maxcore 5000
end

%pal
  nprocs 6
  end
* xyz 0 1
   C        2.89054         1.05966        -0.06595
   C        2.85599        -0.34711        -0.21732
   C        1.65639        -1.01791        -0.25881
   C        0.49439        -0.25810        -0.14751
   C        0.52882         1.15026        -0.01182
   C        1.72833         1.82101         0.03042
   C       -0.88225        -0.64017        -0.12769
   C       -1.70220         0.47013         0.00796
   C       -0.87303         1.72157         0.08262
   C        4.26816         1.43641        -0.02738
   C        5.08867         0.32574        -0.15553
   C        4.25847        -0.91870        -0.30278
   S       -1.76829        -2.10442        -0.20271
   C       -3.27539        -1.21308        -0.04538
   C       -3.05390         0.15020         0.05182
   S        5.15564         2.88888         0.16645
   C        6.66452         1.99100         0.07932
   C        6.44214         0.63605        -0.09896
   C       -1.09255         2.46584         1.41251
   C       -1.17362         2.66824        -1.09470
   C       -0.99348         2.00324        -2.45389
   C       -0.82263         1.59441         2.63311
   C        4.50288        -1.60328        -1.66088
   C        4.53442        -1.91791         0.83564
   C        4.26688        -0.67532        -2.84629
   C        4.32084        -1.31614         2.21924
   C        7.91427         2.66795         0.21263
   C       -4.52210        -1.90761        -0.01244
   C        7.99567         4.04016         0.43240
   C        9.19519         4.72093         0.59368
   C       10.43096         4.08454         0.54554
   C       10.39666         2.68268         0.30650
   C        9.15547         1.97419         0.14311
   C       -4.59969        -3.29544        -0.08631
   C       -5.79466        -4.00031        -0.03188
   C       -7.02990        -3.37460         0.09871
   C       -7.00011        -1.95378         0.16200
   C       -5.76314        -1.22099         0.11015
   N       11.44879         1.87400         0.21211
   S       10.93651         0.37641        -0.05612
   N        9.35486         0.67359        -0.06480
   N       -8.05251        -1.14812         0.27706
   S       -7.54541         0.37459         0.31530
   N       -5.96593         0.09319         0.18959
   C       11.70255         4.70748         0.71951
   C       -8.29544        -4.02860         0.17860
   C       12.01630         5.99303         1.00096
   S       10.96098         7.36879         1.25084
   C       12.34849         8.46073         1.55900
   N       13.50557         7.74914         1.44817
   C       13.41952         6.39870         1.15065
   O       12.23885         9.62538         1.80980
   C       14.79063         8.38684         1.68504
   C       15.10724         8.44835         3.17334
   O       14.38483         5.68181         1.03115
   C       -8.59808        -5.34721         0.19054
   S       -7.53030        -6.73434         0.10936
   C       -8.90174        -7.88053         0.22803
   N      -10.06385        -7.17396         0.31788
   C       -9.99358        -5.79023         0.29936
   O       -8.77950        -9.07065         0.23261
   C      -11.34157        -7.86341         0.39455
   C      -11.81287        -8.30364        -0.98502
   O      -10.96442        -5.07465         0.37547
   H        1.60084        -2.09063        -0.36639
   H        1.78401         2.89352         0.13975
   H       -3.86323         0.84884         0.15373
   H        7.25225        -0.06504        -0.17420
   H       -0.43459         3.33674         1.43622
   H       -2.12413         2.82237         1.44258
   H       -2.20163         3.02336        -0.99840
   H       -0.51025         3.53243        -1.02317
   H       -1.67272         1.16103        -2.56423
   H       -1.20085         2.71639        -3.24808
   H        0.02545         1.64136        -2.57372
   H        0.20188         1.22849         2.62603
   H       -0.97624         2.16941         3.54308
   H       -1.49338         0.73848         2.65167
   H        5.53236        -1.96634        -1.68421
   H        3.83906        -2.46663        -1.73865
   H        3.87635        -2.77985         0.70946
   H        5.56557        -2.26589         0.74700
   H        4.94303         0.17579        -2.81037
   H        4.43849        -1.20956        -3.77767
   H        3.24473        -0.30285        -2.84653
   H        4.99311        -0.47692         2.38256
   H        3.29763        -0.96426         2.33231
   H        4.51423        -2.06357         2.98488
   H        7.07498         4.60305         0.48655
   H        9.15934         5.78508         0.76406
   H       -3.67950        -3.85293        -0.18537
   H       -5.75501        -5.07596        -0.09324
   H       12.55416         4.04261         0.62072
   H       -9.14980        -3.36401         0.25214
   H       15.53529         7.78616         1.15761
   H       14.74787         9.39252         1.26059
   H       15.14325         7.44516         3.59290
   H       16.07240         8.92419         3.32121
   H       14.34845         9.02660         3.69613
   H      -11.21611        -8.72908         1.04926
   H      -12.04708        -7.15601         0.83652
   H      -11.09640        -8.99402        -1.42429
   H      -12.77292        -8.80437        -0.89948
   H      -11.92443        -7.44138        -1.63867
*
