# ORCA input file
# SCF done       -209.648828343520          0.000512061406
! wb97x-d3 def2-SVP def2/J RIJCOSX Grid4 TightSCF
%maxcore 5000
%tddft
    Mode sTDA
    Ethresh 5.0
    maxcore 5000
end

%pal
  nprocs 6
  end
* xyz 0 1
   C        4.74001        -8.05251         6.13095
   O        4.95095        -7.19302         6.96696
   C        5.19723        -9.45695         6.19101
   C        5.93415       -10.07768         7.17936
   C        6.23916       -11.41835         7.00596
   C        5.81050       -12.10277         5.86873
   C        5.07041       -11.47722         4.87573
   C        4.76095       -10.13661         5.04145
   C        4.01168        -9.20278         4.19753
   C        3.45570        -9.51407         2.98324
   C        2.74455        -8.62692         2.14829
   N        2.15788        -7.97228         1.40837
   C        3.52587       -10.79021         2.38466
   N        3.54341       -11.80186         1.84278
   C        3.99274        -7.92538         4.87876
   F        6.11810       -13.39695         5.72720
   C        3.36634        -6.78476         4.43078
   F        6.95122       -12.06252         7.93840
   C        6.99177        12.63343        15.19802
   O        7.25768        11.54603        15.66932
   C        7.50917        13.92463        15.70360
   C        8.39210        14.13590        16.74387
   C        8.74723        15.44413        17.02864
   C        8.22305        16.49971        16.28226
   C        7.33223        16.28588        15.24088
   C        6.97114        14.97911        14.95084
   C        6.07119        14.41984        13.94146
   C        5.30087        15.16906        13.08987
   C        4.36946        14.68333        12.14677
   N        3.58163        14.39198        11.36286
   C        5.31040        16.58043        13.05241
   N        5.26869        17.72391        12.96246
   C        6.12630        12.97251        14.05281
   F        8.58749        17.75351        16.57418
   C        5.50036        12.12587        13.16710
   F        9.60275        15.69780        18.02667
   C        5.44241        10.72943        13.08367
   S        4.55932        10.07854        11.69320
   C        4.90652         8.49126        12.20456
   C        5.64762         8.45123        13.40125
   C        5.95388         9.70470        13.88430
   C        4.70334         7.17590        11.74364
   C        5.31247         6.28691        12.63495
   C        5.92764         7.02254        13.80241
   S        3.97065         6.38425        10.40897
   C        4.49695         4.83826        11.03867
   C        5.19170         4.96615        12.23655
   C        4.20977         3.65064        10.29750
   C        4.62914         2.36866        10.63796
   C        4.36252         1.23762         9.85988
   C        3.64746         1.25366         8.66515
   C        3.17376         2.54552         8.29255
   C        3.45740         3.70660         9.09212
   N        2.45447         2.86136         7.21776
   S        2.16516         4.44253         7.20983
   N        2.93746         4.81123         8.56839
   C        3.42038         0.09358         7.86290
   S        4.08913        -1.46793         8.29141
   C        3.41068        -2.15090         6.87739
   C        2.68130        -1.22570         6.12070
   C        2.70132         0.04312         6.67353
   C        3.40441        -3.39951         6.22482
   C        2.66167        -3.27543         5.03317
   C        2.12265        -1.87007         4.87186
   S        4.03204        -4.96571         6.49037
   C        3.29394        -5.50603         4.98813
   C        2.59124        -4.46508         4.35221
   F        5.34311         2.15916        11.75753
   F        4.85170         0.07310        10.32234
   C        5.15255         6.62530        15.07957
   C        7.43267         6.74566        13.93962
   C        2.70853        -1.14986         3.64145
   C        0.58185        -1.92811         4.88909
   C        5.56294         7.37623        16.33884
   C        8.19630         6.99066        12.64343
   C       -0.11089        -0.57409         4.81661
   C        2.28618        -1.72400         2.29600
   H        6.26290        -9.54383         8.05668
   H        4.76419       -12.05253         4.01773
   H        2.83509        -6.86569         3.49030
   H        8.79457        13.31506        17.31571
   H        6.95905        17.13741        14.69664
   H        4.96093        12.61342        12.36385
   H        6.53465         9.91618        14.76294
   H        5.59329         4.13185        12.77922
   H        2.24218         0.92162         6.26188
   H        2.06406        -4.63374         3.43013
   H        4.08910         6.79665        14.89382
   H        5.29341         5.55351        15.23401
   H        7.83640         7.39463        14.71662
   H        7.56770         5.70848        14.25185
   H        2.42074        -0.09911         3.69691
   H        3.79779        -1.19461         3.72061
   H        0.25545        -2.55161         4.05572
   H        0.28129        -2.43243         5.81111
   H        5.42399         8.44662        16.21828
   H        4.94501         7.04535        17.17048
   H        6.60089         7.18415        16.59444
   H        8.07902         8.02148        12.31653
   H        9.25549         6.79914        12.79575
   H        7.84042         6.33538        11.85164
   H        0.13215        -0.05303         3.89491
   H       -1.18840        -0.71930         4.84787
   H        0.17087         0.05157         5.65868
   H        1.20838        -1.68314         2.16658
   H        2.74364        -1.14392         1.49772
   H        2.61378        -2.75427         2.19260
*
