# ORCA input file
# SCF done       -265.411746776226          0.000459304943
! wb97x-d3 def2-SVP def2/J RIJCOSX Grid4 TightSCF
%maxcore 5000
%tddft
    Mode sTDA
    Ethresh 5.0
    maxcore 5000
end

%pal
  nprocs 6
  end
* xyz 0 1
   C        2.32469        -2.38775        -0.08956
   C        2.48627        -1.85413         1.21070
   C        1.59290        -0.92552         1.73925
   C        0.50203        -0.59570         0.97077
   C        0.29778        -1.19356        -0.29592
   C        1.22587        -2.06964        -0.85262
   C        3.43405        -3.37724        -0.41059
   C        4.13502        -3.45681         0.92309
   C        3.60321        -2.52195         1.80043
   C        5.13987        -4.22783         1.49285
   C        5.36667        -3.89227         2.81887
   S        4.35018        -2.56438         3.34258
   C       -0.65926         0.31725         1.33135
   C       -1.62038         0.00561         0.21208
   C       -1.00536        -0.80161        -0.73214
   C       -2.95035         0.28264        -0.08415
   C       -3.36118        -0.32700        -1.25523
   S       -2.05453        -1.21332        -2.02468
   C        6.20408        -4.54890         3.76825
   C       -4.69244        -0.39694        -1.76674
   C       -1.17491        -0.02044         2.71388
   C       -0.30765         1.79251         1.21861
   C        2.81871        -4.67912        -0.87819
   C        4.44317        -2.83860        -1.41086
   C        6.86451        -5.75390         3.52536
   C        7.56122        -6.45200         4.50306
   C        7.67756        -6.00588         5.82117
   C        7.07333        -4.74740         6.08174
   C        6.34876        -4.04412         5.08065
   C       -5.00826        -0.97245        -2.99466
   C       -6.31507        -1.17646        -3.42013
   C       -7.41924        -0.86882        -2.63031
   C       -7.13573        -0.19913        -1.42068
   C       -5.79646         0.04097        -0.99636
   N        7.00858        -4.01718         7.20368
   N        6.30447        -2.96993         6.86839
   N        5.88080        -2.91967         5.63758
   N       -7.94905         0.32957        -0.49708
   N       -7.14071         0.81354         0.40125
   N       -5.86377         0.68134         0.18026
   C        8.29226        -6.66585         6.92158
   C        8.80459        -7.91583         7.09234
   C       -8.74915        -1.21961        -3.03269
   C       -9.75269        -1.59871        -2.20684
   C       -7.63709         1.37080         1.62594
   C        5.98417        -1.93958         7.81432
   C       -9.67238        -1.98423        -0.79974
   N      -10.94161        -2.28454        -0.30712
   C      -11.96538        -2.23693        -1.19592
   S      -11.39835        -1.80829        -2.79346
   C        8.92508        -9.06592         6.20677
   N        9.42433       -10.16840         6.89652
   C        9.73128        -9.98362         8.20574
   S        9.40657        -8.34244         8.69783
   C        9.62681       -11.40837         6.16990
   O        8.64163        -9.13965         5.02901
   C       10.21796       -10.89684         9.10905
   C       10.45155       -10.49194        10.43961
   C       10.52029       -12.24616         8.86405
   C        2.52428        -4.86568        -2.22341
   C        1.91459        -6.02841        -2.65379
   C        1.57735        -7.03225        -1.75509
   C        1.86632        -6.83777        -0.41134
   C        2.47273        -5.67413         0.02507
   C        4.47160        -1.50262        -1.78198
   C        5.43405        -1.04089        -2.66226
   C        6.39190        -1.89585        -3.18854
   C        6.36638        -3.23080        -2.80386
   C        5.40784        -3.69675        -1.92582
   C       -0.59963         0.57116         3.83198
   C       -1.03476         0.24389         5.10198
   C       -2.05166        -0.68292         5.29081
   C       -2.61817        -1.27648         4.17103
   C       -2.18254        -0.95669         2.89821
   C        0.89468         2.22998         0.68344
   C        1.15778         3.58333         0.56779
   C        0.22943         4.53089         0.97532
   C       -0.97798         4.08691         1.49993
   C       -1.24481         2.73722         1.62011
   O       -8.67829        -2.12158        -0.12341
   C      -11.07500        -2.60481         1.10116
   C      -13.29646        -2.49527        -0.98108
   C      -14.20015        -2.42083        -2.06152
   C      -13.89886        -2.83376         0.24179
   N       10.64482       -10.17472        11.52515
   N       10.79097       -13.35547         8.73569
   N      -14.45656        -3.10368         1.20953
   N      -14.94664        -2.36550        -2.93070
   C       -2.56057        -0.99611         6.66851
   C        0.50512         5.99712         0.80503
   C        7.46106        -1.38228        -4.10930
   C        0.96099        -8.31496        -2.23372
   C        2.04930        -9.32374        -2.60653
   C        8.68650        -0.93628        -3.30900
   C       -7.61762         0.30246         2.71603
   C        0.10149         6.45802        -0.59682
   C       -3.70498        -0.05182         7.04239
   C        4.49787        -1.97599         8.15332
   C       11.07141       -11.55918         5.70861
   C      -11.46125        -1.37429         1.91370
   H        1.73954        -0.51826         2.72775
   H        1.06086        -2.50617        -1.82570
   H        5.67177        -5.01058         0.98431
   H       -3.62504         0.86052         0.51893
   H        6.80734        -6.18843         2.53968
   H        8.01209        -7.39196         4.23370
   H       -4.19827        -1.30055        -3.63019
   H       -6.47983        -1.65988        -4.37222
   H        8.30847        -6.04577         7.81242
   H       -8.95811        -1.18535        -4.09552
   H       -7.00030         2.21396         1.90183
   H       -8.65509         1.71523         1.43555
   H        6.59712        -2.11868         8.69889
   H        6.24287        -0.97524         7.36944
   H        9.32863       -12.24717         6.80066
   H        8.96567       -11.35555         5.30037
   H        2.78332        -4.09926        -2.94002
   H        1.69436        -6.15720        -3.70413
   H        1.60906        -7.60447         0.30575
   H        2.67837        -5.54102         1.07738
   H        3.73680        -0.81640        -1.38716
   H        5.43713         0.00209        -2.94603
   H        7.10504        -3.91352        -3.19932
   H        5.39727        -4.73995        -1.64493
   H        0.18673         1.30185         3.70634
   H       -0.57687         0.71529         5.96027
   H       -3.40851        -2.00334         4.29530
   H       -2.63453        -1.43802         2.04343
   H        1.63513         1.51407         0.35841
   H        2.10323         3.90675         0.15573
   H       -1.71684         4.80773         1.82045
   H       -2.18521         2.40903         2.03808
   H      -11.80765        -3.40298         1.22700
   H      -10.09119        -2.96530         1.41603
   H       -2.91825        -2.02701         6.70602
   H       -1.75300        -0.88769         7.39530
   H       -0.05559         6.56868         1.54712
   H        1.56877         6.19340         0.95483
   H        7.75520        -2.16687        -4.80939
   H        7.07975        -0.53616        -4.68450
   H        0.33073        -8.73867        -1.44931
   H        0.33567        -8.12138        -3.10767
   H        2.67558        -9.54010        -1.74388
   H        1.60448       -10.25294        -2.95481
   H        2.68145        -8.92347        -3.39615
   H        9.08914        -1.76978        -2.73776
   H        9.46174        -0.56438        -3.97486
   H        8.41618        -0.14494        -2.61333
   H       -6.59310         0.00587         2.92708
   H       -8.07047         0.68663         3.62567
   H       -8.16956        -0.57393         2.38420
   H       -0.95866         6.28040        -0.76259
   H        0.29986         7.52009        -0.72058
   H        0.66112         5.90947        -1.35097
   H       -4.52690        -0.15674         6.33758
   H       -4.07305        -0.27536         8.04099
   H       -3.36503         0.98128         7.02018
   H        4.23645        -2.92603         8.61315
   H        4.25736        -1.17461         8.84578
   H        3.91064        -1.85003         7.24703
   H       11.75147       -11.59768         6.55626
   H       11.17385       -12.48312         5.14756
   H       11.34860       -10.72605         5.06657
   H      -12.45109        -1.01957         1.63717
   H      -11.47237        -1.62757         2.96965
   H      -10.73947        -0.57732         1.74820
*
