# ORCA input file
# SCF done       -200.517175785840          0.000423444391
! wb97x-d3 def2-SVP def2/J RIJCOSX Grid4 TightSCF
%maxcore 5000
%tddft
    Mode sTDA
    Ethresh 5.0
    maxcore 5000
end

%pal
  nprocs 6
  end
* xyz 0 1
   S        1.80686         0.49511         0.63429
   N        1.11688        -0.94466         0.45799
   C       -0.18759        -0.78157         0.25849
   C       -0.56549         0.60540         0.26243
   N        0.48622         1.39775         0.46606
   C       -1.13685        -1.81708         0.05592
   C       -2.45116        -1.40123        -0.13051
   C       -2.82377        -0.06334        -0.10696
   C       -1.92559         0.98102         0.08735
   C       -2.34311         2.34711         0.13631
   C       -0.73065        -3.18735         0.06705
   C       -1.49990        -4.30629        -0.23216
   C       -0.78791        -5.48608        -0.09531
   C        0.53124        -5.27369         0.31954
   S        0.90384        -3.60961         0.51685
   C       -1.06544        -6.95804        -0.27816
   C        0.27097        -7.53694         0.12033
   C        1.18248        -6.51625         0.45803
   C        0.82459        -8.78533         0.24173
   C        2.16350        -8.75078         0.67747
   S        2.71816        -7.09755         0.92770
   C       -1.54170         3.47737         0.18871
   C       -2.28261         4.64716         0.25797
   C       -3.66173         4.41923         0.26842
   S       -4.05027         2.75162         0.16929
   C       -1.98456         6.12301         0.34261
   C       -3.38499         6.67911         0.43583
   C       -4.34383         5.64735         0.38237
   C       -3.96357         7.91450         0.57387
   C       -5.36888         7.85758         0.63981
   S       -5.95523         6.20182         0.50691
   C        2.90150        -9.91923         0.87255
   C        4.19848       -10.10320         1.29841
   C        4.85848       -11.37992         1.46860
   C        6.21732       -11.10932         1.94121
   C        6.38715        -9.71920         2.05790
   C        5.13698        -9.04000         1.66002
   C        7.26553       -11.95517         2.26179
   C        8.46468       -11.39732         2.69422
   C        8.62237       -10.01282         2.80773
   C        7.57285        -9.16056         2.48613
   C        4.34066       -12.63036         1.24144
   O        4.94766        -7.83668         1.64392
   C        5.05733       -13.83013         1.43405
   C        3.03632       -12.91595         0.78834
   N        5.57823       -14.84412         1.56940
   N        1.99566       -13.23875         0.42299
  Cl        9.76972       -12.44061         3.09414
  Cl       10.11654        -9.35870         3.34612
   C       -1.40775        -7.28900        -1.74353
   C       -2.19786        -7.44828         0.64200
   C       -0.34044        -6.82460        -2.72685
   C       -1.93845        -7.15609         2.11468
   C       -1.25870         6.62523        -0.92009
   C       -2.01397         6.31680        -2.20705
   C       -1.15027         6.46461         1.59052
   C       -1.79397         5.98871         2.88700
   C       -6.14107         9.00732         0.81399
   C       -7.50308         9.16398         0.94364
   C       -8.19340        10.41836         1.15587
   C       -9.62046        10.11564         1.27661
   C       -9.80300         8.72969         1.13141
   C       -8.49190         8.08564         0.91237
   C      -10.71797        10.93008         1.49830
   C      -11.97861        10.34561         1.57180
   C      -12.14882         8.96556         1.42529
   C      -11.04980         8.14492         1.20174
   O       -8.29542         6.89532         0.74211
   C       -7.64717        11.67466         1.23522
   C       -8.39647        12.85091         1.44824
   C       -6.27778        11.98975         1.11736
   N       -5.18481        12.33452         1.03282
   N       -8.94118        13.84674         1.62047
  Cl      -13.71971         8.27779         1.52225
  Cl      -13.34464        11.34933         1.84927
   H       -3.22026        -2.14110        -0.28485
   H       -3.86708         0.18121        -0.24499
   H       -2.52714        -4.24707        -0.54196
   H        0.32305        -9.71534         0.03941
   H       -0.46980         3.41092         0.18065
   H       -3.43494         8.84922         0.63828
   H        2.33776       -10.81665         0.64824
   H        7.18408       -13.02697         2.18800
   H        7.67981        -8.09056         2.56841
   H       -1.53615        -8.36947        -1.83067
   H       -2.35985        -6.81527        -1.99095
   H       -3.12695        -6.96456         0.33381
   H       -2.31560        -8.52418         0.50016
   H        0.61557        -7.29518        -2.50996
   H       -0.63021        -7.08883        -3.74086
   H       -0.21148        -5.74586        -2.67693
   H       -1.83571        -6.08669         2.28407
   H       -2.76652        -7.52139         2.71706
   H       -1.02772        -7.64613         2.45058
   H       -1.12008         7.70425        -0.83012
   H       -0.27226         6.15913        -0.95785
   H       -2.99802         6.77979        -2.19877
   H       -1.46235         6.70049        -3.06170
   H       -2.13938         5.24393        -2.33414
   H       -0.16683         6.00304         1.48358
   H       -1.01394         7.54703         1.62787
   H       -1.91254         4.90762         2.88465
   H       -1.16954         6.26284         3.73362
   H       -2.77309         6.44246         3.02230
   H       -5.54576         9.91076         0.86706
   H      -10.62866        11.99724         1.61699
   H      -11.16566         7.07880         1.08727
*
