# ORCA input file
# SCF done       -128.263594542749          0.000252630751
! wb97x-d3 def2-SVP def2/J RIJCOSX Grid4 TightSCF
%maxcore 5000
%tddft
    Mode sTDA
    Ethresh 5.0
    maxcore 5000
end

%pal
  nprocs 6
  end
* xyz 0 1
   C       -1.02387         1.66881        -0.27337
   C       -0.20853         0.91583         0.57498
   C       -0.13612        -0.49551         0.50104
   C       -0.76782        -1.22165        -0.51412
   C       -1.55495        -0.47344        -1.42893
   C       -1.71147         0.95031        -1.28787
   N       -2.25271        -0.94638        -2.45885
   S       -3.02785         0.26558        -3.17505
   N       -2.51923         1.45254        -2.21850
   O        0.50889         1.59272         1.52775
   O        0.61483        -1.21075         1.39100
   C        0.33095        -1.06689         2.78428
   C        1.93283         1.54067         1.38336
   C       -1.14363         3.08690        -0.13027
   C       -0.65066        -2.64444        -0.59653
   S       -0.33618         3.93598         1.14769
   C       -1.00739         5.45373         0.62025
   C       -1.80971         5.27468        -0.49897
   C       -1.88659         3.95522        -0.91490
   C       -1.22751        -3.48984        -1.53201
   C       -0.93852        -4.82808        -1.31751
   C       -0.13200        -5.04608        -0.20817
   S        0.28108        -3.53951         0.55913
   C       -0.76318         6.68045         1.26793
   C        0.00644         6.90129         2.36446
   C        0.29561        -6.29858         0.27369
   C        1.01730        -6.54647         1.39716
   C        0.15810         8.22759         2.95918
   N        0.98112         8.15934         4.07357
   C        1.48836         6.94561         4.39647
   S        0.92149         5.71825         3.26229
   S        1.60691        -5.37391         2.54780
   C        2.30760        -6.64365         3.55308
   N        2.08546        -7.86183         3.00383
   C        1.38392        -7.90008         1.80799
   O       -0.35507         9.25206         2.56787
   C        1.29614         9.35558         4.83027
   S        2.47459         6.62522         5.65499
   S        3.09586        -6.35607         4.95181
   C        2.57780        -9.08434         3.60862
   O        1.11861        -8.92505         1.22048
   C        2.63412         9.94504         4.40277
   C        2.55887         2.20294         2.59674
   C       -1.07612        -1.52770         3.13738
   C        4.03568        -9.33271         3.24350
   H        1.07727        -1.70210         3.26583
   H        0.47113        -0.03001         3.10205
   H        2.26635         0.50102         1.29346
   H        2.21184         2.07677         0.46617
   H       -2.31889         6.08863        -0.98371
   H       -2.46012         3.61201        -1.75538
   H       -1.83799        -3.11822        -2.33349
   H       -1.30360        -5.62874        -1.93593
   H       -1.24905         7.55768         0.85589
   H        0.01159        -7.17211        -0.30184
   H        0.48733        10.06382         4.63524
   H        1.31709         9.09071         5.89014
   H        2.46528        -8.99606         4.69181
   H        1.94633        -9.89107         3.22904
   H        2.61501        10.19521         3.34456
   H        2.83069        10.84827         4.97257
   H        3.43641         9.23455         4.58706
   H        2.30281         1.66057         3.50271
   H        3.63907         2.21267         2.48568
   H        2.19915         3.22320         2.69178
   H       -1.22188        -2.56405         2.84359
   H       -1.22284        -1.44126         4.21006
   H       -1.81726        -0.91026         2.63240
   H        4.65938        -8.51791         3.60348
   H        4.37208       -10.25773         3.70225
   H        4.14535        -9.41601         2.16469
*
