# ORCA input file
# SCF done       -202.870319153206          0.000482880150
! wb97x-d3 def2-SVP def2/J RIJCOSX Grid4 TightSCF
%maxcore 5000
%tddft
    Mode sTDA
    Ethresh 5.0
    maxcore 5000
end

%pal
  nprocs 6
  end
* xyz 0 1
   C        4.42140         0.99840         0.24611
   O        4.96978         0.44564         1.17835
   C        5.04214         1.34400        -1.05245
   C        6.36208         1.20580        -1.43234
   C        6.70204         1.57997        -2.72254
   F        7.97148         1.46941        -3.13164
   C        5.73377         2.06925        -3.59975
   F        6.08924         2.41583        -4.84179
   C        4.40683         2.20377        -3.21915
   C        4.06074         1.83706        -1.92804
   C        2.77838         1.86564        -1.22617
   C        1.61056         2.38265        -1.72252
   C        0.40466         2.50544        -0.99929
   N       -0.60082         2.66251        -0.46729
   C        1.46563         2.89350        -3.03003
   N        1.28481         3.31487        -4.08196
   C        2.99717         1.34362         0.10812
   C        2.00558         1.04358         1.00814
   C        2.08461         0.71810         2.37415
   S        0.73018        -0.27358         2.94557
   C        1.35929        -0.28361         4.54616
   C        2.52273         0.49709         4.62224
   C        2.94277         1.07184         3.41728
   C        4.08906         2.02271         3.38331
   C        3.73055         3.38433         2.79156
   S        3.18162         0.60158         6.23841
   C        1.89158        -0.40322         6.79995
   C        1.00752        -0.81584         5.79013
   N        0.00463        -1.57500         6.32835
   C       -1.21721        -1.80915         5.58580
   C        0.22731        -1.65069         7.69517
   C        1.39146        -0.89206         8.01089
   C        1.74910        -0.65286         9.35570
   N        2.74230         0.04141         9.91273
   N        2.48582        -0.00809        11.19530
   N        1.41289        -0.67061        11.55209
   C        0.90222        -1.10832        10.40200
   C       -0.20883        -1.92672        10.09713
   C       -0.48602        -2.28849         8.73919
   N       -1.49952        -3.21070         8.71864
   C       -1.78973        -4.17854         7.68334
   C       -1.65709        -5.61004         8.19702
   C       -1.93537        -3.40070        10.01282
   C       -1.13753        -2.59333        10.89134
   S       -1.57760        -2.70442        12.52471
   C       -2.90721        -3.95121        11.98042
   C       -2.91105        -4.16403        10.60022
   S       -3.15386        -5.49585        15.36316
   C       -3.51351        -4.23936        14.33877
   C       -3.67904        -4.54169        12.92014
   C       -4.70507        -5.56387        12.54663
   C       -6.10643        -4.98237        12.75180
   C       -3.66235        -2.92172        14.84077
   C       -1.05224        -2.86849         4.49837
   C       -4.36509        -0.60418        14.66459
   C       -4.87836         0.46453        13.97538
   C       -5.07859         1.80849        14.47830
   C       -4.76772         2.28304        15.72653
   C       -4.99201         3.61192        16.14604
   N       -5.14481         4.67611        16.54768
   C       -4.18043         1.53718        16.77091
   N       -3.70805         1.00888        17.67424
   C       -5.68008         2.59876        13.40336
   C       -6.08738         3.92347        13.35848
   C       -6.63551         4.39764        12.17580
   F       -7.03460         5.67222        12.11312
   C       -6.78010         3.58003        11.05438
   F       -7.31377         4.07974         9.93325
   C       -6.37612         2.25543        11.09149
   C       -5.83097         1.78367        12.26931
   C       -5.33483         0.42112        12.56500
   O       -5.31842        -0.51444        11.79371
   C       -4.19817        -1.89225        14.12084
   C        3.36103         0.58578        12.16399
   C        4.38577        -0.43241        12.65535
   H        7.10722         0.82310        -0.75330
   H        3.69587         2.58090        -3.93572
   H        0.99637         0.99626         0.61267
   H        4.44356         2.15467         4.40802
   H        4.90024         1.57201         2.80328
   H        2.90540         3.83191         3.34154
   H        4.58874         4.04794         2.85658
   H        3.44110         3.30031         1.74754
   H       -1.50052        -0.86469         5.10650
   H       -2.00756        -2.07607         6.28611
   H       -2.80805        -4.02495         7.30911
   H       -1.07303        -4.03071         6.87862
   H       -2.38295        -5.79726         8.98466
   H       -1.83304        -6.30321         7.37904
   H       -0.65895        -5.78131         8.59418
   H       -4.56944        -5.85361        11.50550
   H       -4.57999        -6.43746        13.19011
   H       -6.24234        -4.09978        12.13115
   H       -6.85480        -5.72029        12.47606
   H       -6.25969        -4.70379        13.79240
   H       -3.39073        -2.76974        15.87786
   H       -0.34097        -2.53404         3.74867
   H       -0.69768        -3.81394         4.90079
   H       -2.00859        -3.03578         4.01163
   H       -4.05808        -0.46654        15.69301
   H       -5.99953         4.59689        14.19493
   H       -6.48748         1.61852        10.22850
   H       -4.50739        -2.05533        13.09897
   H        3.85813         1.42843        11.68003
   H        2.74474         0.93587        12.99435
   H        4.98982        -0.78866        11.82439
   H        5.03835         0.02742        13.39169
   H        3.88045        -1.27896        13.11369
*
