# ORCA input file
# SCF done       -190.530432267520          0.000612792277
! wb97x-d3 def2-SVP def2/J RIJCOSX Grid4 TightSCF
%maxcore 5000
%tddft
    Mode sTDA
    Ethresh 5.0
    maxcore 5000
end

%pal
  nprocs 6
  end
* xyz 0 1
   C        0.19222         0.59702         0.44250
   O        0.24624         1.79186         0.20626
   C       -0.10719        -0.01636         1.75171
   C       -0.38628         0.60475         2.95101
   C       -0.64410        -0.19230         4.05966
  Cl       -0.99691         0.54067         5.57211
   C       -0.61746        -1.58596         3.94626
  Cl       -0.93927        -2.56041         5.32364
   C       -0.33454        -2.20688         2.73363
   C       -0.07715        -1.41593         1.62668
   C        0.24609        -1.75794         0.24112
   C        0.38003        -3.03483        -0.24257
   C        0.70899        -3.38704        -1.56800
   N        0.97570        -3.75898        -2.62235
   C        0.20927        -4.19782         0.53804
   N        0.08462        -5.18515         1.11013
   C        0.39928        -0.51422        -0.48575
   C        0.67746        -0.41051        -1.82995
   C        0.84853         0.70712        -2.64813
   S        0.73631         2.38383        -2.10745
   C        1.08108         2.93463        -3.70253
   C        1.26439         1.86658        -4.60071
   C        1.13667         0.61225        -4.02363
   C        1.35045        -0.65438        -4.78503
   S        1.60481         2.37960        -6.24383
   C        1.49760         4.02267        -5.71670
   C        1.22823         4.16376        -4.34966
   N        1.14676         5.49044        -4.02655
   C        1.37754         6.22930        -5.17088
   C        1.57059         5.31285        -6.25155
   C        1.71646         5.73851        -7.59049
   N        1.86922         5.00239        -8.67983
   S        1.92518         5.99027        -9.96116
   N        1.75863         7.39480        -9.17336
   C        1.65387         7.13848        -7.87909
   C        1.54408         8.04976        -6.80540
   C        1.45731         7.62438        -5.44251
   N        1.49242         8.75202        -4.64592
   C        1.56623         9.84920        -5.45876
   C        1.58980         9.44757        -6.80004
   S        1.71774        10.75828        -7.92070
   C        1.76643        11.86937        -6.56313
   C        1.67779        11.23356        -5.31066
   S        1.74933        12.35844        -4.00847
   C        1.90105        13.69312        -5.15387
   C        1.89314        13.24825        -6.49044
   C        1.95331        14.12110        -7.70053
   C        2.02759        15.03793        -4.80294
   C        2.05912        15.65338        -3.57197
   C        2.21027        17.07762        -3.35465
   C        2.35120        18.06076        -4.30131
   C        2.49425        19.43210        -4.00119
   N        2.61288        20.56080        -3.82908
   C        2.37684        17.86657        -5.69785
   N        2.40725        17.79458        -6.84439
   C        2.19372        17.30196        -1.90864
   C        2.30075        18.45893        -1.15549
   C        2.25441        18.35915         0.23159
  Cl        2.38665        19.78982         1.17250
   C        2.10348        17.12192         0.86584
  Cl        2.05162        17.03538         2.58035
   C        1.99505        15.95875         0.11350
   C        2.04108        16.06406        -1.26082
   C        1.95079        14.99200        -2.27192
   O        1.81476        13.80195        -2.04482
   C        0.69239         5.85600        -2.70420
   C        1.60596         8.94147        -3.21805
   C        0.29060         9.41453        -2.59933
   C        1.80471         5.73936        -1.66193
   C        2.78882        -1.15234        -4.61578
   C        0.56435        14.66561        -8.04643
   H       -0.40369         1.68064         3.02372
   H       -0.32400        -3.28328         2.68708
   H        0.78432        -1.34679        -2.36014
   H        0.65800        -1.43182        -4.45949
   H        1.16605        -0.45198        -5.84190
   H        2.64162        14.95420        -7.55169
   H        2.31824        13.52063        -8.53609
   H        2.11697        15.69420        -5.65748
   H        2.41868        19.43044        -1.60614
   H        1.87843        14.99791         0.58916
   H        0.26478         6.85400        -2.73257
   H       -0.10727         5.15887        -2.43195
   H        1.96574         8.02650        -2.75755
   H        2.36132         9.71718        -3.05350
   H        0.37973         9.42974        -1.51702
   H        0.06094        10.42175        -2.93561
   H       -0.53969         8.76822        -2.87756
   H        2.05778         4.69543        -1.50012
   H        2.70703         6.25988        -1.97685
   H        1.46649         6.15674        -0.71800
   H        3.00397        -1.36182        -3.57069
   H        2.92984        -2.06646        -5.18485
   H        3.49255        -0.40442        -4.97349
   H        0.16834        15.26055        -7.22685
   H        0.62644        15.29500        -8.92929
   H       -0.12349        13.84754        -8.24687
*
