# ORCA input file
# SCF done       -295.336913014276          0.000858749446
! wb97x-d3 def2-SVP def2/J RIJCOSX Grid4 TightSCF
%maxcore 5000
%tddft
    Mode sTDA
    Ethresh 5.0
    maxcore 5000
end

%pal
  nprocs 6
  end
* xyz 0 1
   C        2.97780         6.10372         2.67241
   C        1.88224         5.22011         2.82940
   C        0.63098         5.70780         3.11614
   C        0.49763         7.08943         3.25558
   C        1.59854         7.97305         3.12712
   C        2.84562         7.48285         2.81376
   C       -0.65821         7.89165         3.48562
   C       -0.31959         9.24617         3.50117
   C        1.16838         9.41222         3.33879
   C        4.11427         5.30056         2.35567
   C        3.77316         3.95735         2.30737
   C        2.31185         3.78111         2.61551
   S       -2.32808         7.63144         3.70814
   C       -2.59902         9.37875         3.82234
   C       -1.40018        10.08191         3.69387
   S        5.77532         5.57056         2.01968
   C        6.01810         3.85058         1.80183
   C        4.84777         3.13270         1.99172
   C        1.70727         9.99059         4.66930
   C        1.52215        10.31033         2.14416
   C        0.88666         9.82937         0.84466
   C        3.22241        10.08263         4.78735
   C        1.55799         3.13538         1.43820
   C        2.10135         2.93930         3.88843
   C        1.71787         3.90713         0.13404
   C        2.82232         3.50796         5.10454
   C        7.30172         3.35071         1.45953
   C       -3.92384         9.77784         4.03584
   C       -4.50754        11.02058         4.13086
   C       -3.88852        12.34489         3.93864
   C       -4.99687        13.32171         4.03428
   C       -6.20028        12.65026         4.29568
   C       -5.92255        11.21639         4.39181
   C       -4.93186        14.69371         3.89491
   C       -6.11194        15.40810         4.01968
   C       -7.31480        14.75034         4.27641
   C       -7.37769        13.37205         4.41829
   O       -2.72675        12.63352         3.73297
   C       -6.85785        10.26706         4.71558
   C       -6.63416         8.88317         4.87976
   C       -8.21815        10.55180         4.96314
   N       -9.33617        10.70800         5.17085
   N       -6.55607         7.74922         5.04721
   C        7.65499         2.04638         1.16291
   C        9.00063         1.89984         0.84813
   C        9.71677         3.08327         0.90198
   S        8.67884         4.40295         1.36975
   C       11.09981         3.33318         0.64609
   C       11.65228         4.60542         0.95975
   C       13.03414         4.91579         0.74153
   C       13.94223         3.98021         0.17452
   C       13.38256         2.73312        -0.12656
   C       12.00938         2.42244         0.09601
   N       10.99315         5.63260         1.48615
   S       12.00305         6.86742         1.68939
   N       13.32689         6.15664         1.11739
   C       14.15288         1.66907        -0.64723
   C       11.62413         1.12535        -0.31105
   N       14.74070         0.77210        -1.05465
   N       11.35554         0.06933        -0.67038
   C       20.79887         9.40720         1.39185
   C       22.04380         9.22692         0.74040
   C       23.08958        10.07540         1.01644
   C       22.85261        11.12606         1.90206
   C       21.59300        11.33356         2.51599
   C       20.56240        10.45344         2.28092
   C       23.73391        12.12509         2.40880
   C       23.07513        12.94078         3.32777
   C       21.62545        12.54400         3.43024
   C       19.95465         8.33545         0.97656
   C       20.61910         7.48978         0.10139
   C       22.01707         7.99663        -0.15411
   S       25.36812        12.56366         2.19273
   C       25.19745        13.84777         3.38375
   C       23.89329        13.90682         3.87903
   S       18.33693         7.84613         1.27524
   C       18.54479         6.48455         0.19712
   C       19.81682         6.44621        -0.35114
   C       20.78800        13.71949         2.87213
   C       21.22423        12.19027         4.87048
   C       22.10081        11.09736         5.47081
   C       19.29855        13.45097         2.70596
   C       23.10165         7.01240         0.32439
   C       22.11547         8.35944        -1.65172
   C       23.14720         5.68568        -0.42172
   C       23.44319         8.95002        -2.10655
   C       17.48094         5.57041        -0.02208
   C       26.29813        14.68138         3.62946
   C       26.50193        15.59665         4.62969
   C       27.48832        16.68182         4.41345
   C       27.23036        17.66096         5.49662
   C       26.24922        17.14875         6.36303
   C       25.88275        15.80377         5.91358
   C       27.79927        18.90338         5.69161
   C       27.36131        19.64885         6.77522
   C       26.38076        19.15115         7.63310
   C       25.81653        17.89779         7.44446
   O       28.29884        16.76701         3.51985
   C       25.28652        14.84972         6.70076
   C       25.22012        13.48854         6.34915
   C       24.75165        15.10052         7.97958
   N       24.27138        15.25835         9.01030
   N       25.17405        12.36382         6.12235
   C       17.51529         4.39039        -0.74389
   C       16.30163         3.71386        -0.74977
   C       15.30257         4.35887        -0.04158
   S       15.89914         5.85106         0.63356
   F       -6.09828        16.74113         3.89135
   F       -8.44141        15.46404         4.38852
   F       25.96754        19.89901         8.66299
   F       27.88249        20.86170         6.99900
   H       -0.22886         5.06389         3.22233
   H        3.69835         8.12552         2.66146
   H       -1.36308        11.15436         3.73403
   H        4.80013         2.06300         1.90389
   H        1.27579        10.98661         4.78895
   H        1.33022         9.36674         5.48412
   H        1.18234        11.32473         2.36070
   H        2.60553        10.33198         2.02319
   H       -0.19840         9.84139         0.91725
   H        1.18052        10.47863         0.02358
   H        1.20530         8.81516         0.61223
   H        3.64753        10.68644         3.99040
   H        3.47835        10.55009         5.73559
   H        3.67599         9.09553         4.76594
   H        1.93067         2.11768         1.30550
   H        0.49902         3.07346         1.69562
   H        1.03077         2.88460         4.09450
   H        2.45848         1.92558         3.69597
   H        2.76379         3.95595        -0.16020
   H        1.16133         3.41533        -0.65995
   H        1.34268         4.92277         0.23900
   H        3.89619         3.54326         4.93575
   H        2.47531         4.51579         5.32165
   H        2.63284         2.88408         5.97456
   H       -4.60221         8.93886         4.13517
   H       -3.99829        15.19513         3.69551
   H       -8.33368        12.91592         4.61454
   H        6.95797         1.22861         1.16644
   H        9.43995         0.95311         0.59784
   H       24.07343         9.94356         0.59452
   H       19.60645        10.53517         2.77381
   H       23.57131        14.66002         4.57562
   H       20.11431         5.69260        -1.05615
   H       20.92604        14.56870         3.54540
   H       21.20373        13.99714         1.89969
   H       21.29482        13.09143         5.48344
   H       20.18537        11.85832         4.87667
   H       23.13948        11.41513         5.52780
   H       21.76314        10.86384         6.47756
   H       22.04911        10.19091         4.87150
   H       18.83950        13.16205         3.64731
   H       18.80868        14.35761         2.35758
   H       19.12422        12.66993         1.97126
   H       24.07146         7.50478         0.24387
   H       22.92360         6.81703         1.38516
   H       21.90657         7.45695        -2.22860
   H       21.31808         9.07531        -1.86906
   H       23.33217         5.83219        -1.48237
   H       23.95223         5.07406        -0.02040
   H       22.21704         5.13861        -0.29809
   H       24.27131         8.28032        -1.89173
   H       23.41256         9.11293        -3.18183
   H       23.62869         9.90729        -1.62798
   H       27.07818        14.66909         2.87370
   H       28.55799        19.28668         5.02824
   H       25.06115        17.55543         8.13299
   H       18.39485         4.02616        -1.24214
   H       16.15522         2.78481        -1.26695
*
