# ORCA input file
# SCF done       -224.952517864993          0.000529262139
! wb97x-d3 def2-SVP def2/J RIJCOSX Grid4 TightSCF
%maxcore 5000
%tddft
    Mode sTDA
    Ethresh 5.0
    maxcore 5000
end

%pal
  nprocs 6
  end
* xyz 0 1
   C        2.07760        -1.09570         0.73664
   C        3.37831        -1.56575         0.88545
   C        4.40028        -0.70715         0.55177
   C        4.12684         0.58944         0.05641
   C        2.82445         1.04524        -0.13061
   C        1.80222         0.19740         0.22791
   C        5.89645        -0.95871         0.61800
   C        6.42668         0.37661         0.17037
   C        5.38781         1.23425        -0.14857
   C        0.30539         0.43361         0.12730
   C       -0.21624        -0.84140         0.71336
   C        0.81736        -1.71215         1.02848
   C        6.44246        -1.22836         2.00580
   C        6.22583        -2.08625        -0.34555
   C       -0.25396         1.58570         0.93733
   C       -0.06529         0.56034        -1.34482
   C       -1.43620        -1.41686         1.01877
   C       -1.34372        -2.69515         1.53355
   S        0.28577        -3.24023         1.65583
  Se       -3.39114        -1.32959         1.02843
   C       -3.32651        -3.03675         0.22570
   C       -2.73907        -3.20184         1.57014
   C        7.67159         0.98593         0.04434
   C        7.56308         2.32712        -0.38883
   S        5.90441         2.81054        -0.63316
  Se        9.44251         0.50754         0.29949
   C        9.88071         2.29756        -0.22433
   C        8.74817         3.03420        -0.53460
   C        7.73726        -1.71865         2.13561
   C        8.29125        -1.91519         3.38530
   C        7.56998        -1.62510         4.53719
   C        6.28257        -1.12478         4.40103
   C        5.72327        -0.92304         3.15147
   C        6.59012        -1.82950        -1.65942
   C        6.84871        -2.87095        -2.53137
   C        6.73999        -4.19181        -2.11908
   C        6.36812        -4.44318        -0.80449
   C        6.11111        -3.40637         0.07167
   C        0.52139         2.35052         1.79425
   C       -0.05702         3.36368         2.53917
   C       -1.41704         3.62653         2.45663
   C       -2.19113         2.84477         1.60678
   C       -1.62116         1.83386         0.85816
   C       -0.35504        -0.55994        -2.11258
   C       -0.65771        -0.43007        -3.45309
   C       -0.66602         0.81383        -4.07540
   C       -0.37090         1.92807        -3.30269
   C       -0.07541         1.80436        -1.95636
   C       -3.37838        -3.43463        -1.04874
   C       -3.73100        -2.58423        -2.13459
   C       -4.00797        -3.02332        -3.46969
   C       -4.19913        -1.82352        -4.29584
   C       -4.03517        -0.69912        -3.46978
   C       -3.74065        -1.15721        -2.09942
   C       -4.51076        -1.65266        -5.63075
   C       -4.66475        -0.35585        -6.11482
   C       -4.50802         0.74597        -5.29175
   C       -4.18084         0.58425        -3.94988
   O       -3.52858        -0.35984        -1.15534
   C       -4.12111        -4.31661        -3.92755
   C       -4.38204        -4.66064        -5.26713
   C       -4.00447        -5.47165        -3.13236
   N       -4.58339        -5.01174        -6.34280
   N       -3.93251        -6.45640        -2.54240
   C        8.19356        -1.79895         5.89172
   C        9.01076        -0.56043         6.26487
   C        7.06699        -5.31761        -3.05641
   C        8.55878        -5.65111        -2.98853
   C       -2.02794         4.75977         3.22906
   C       -1.95660         6.05572         2.41852
   C       -0.95925         0.88596        -5.55019
   C       -1.34401         2.26637        -6.06791
   C       11.24847         2.62291        -0.22449
   C       11.92194         3.79439        -0.45508
   C       13.37125         3.90230        -0.39818
   C       13.71731         5.31861        -0.50406
   C       12.53731         6.05610        -0.69229
   C       11.37455         5.14679        -0.70291
   C       14.93474         5.97978        -0.44944
   C       14.94560         7.36165        -0.58716
   C       13.77494         8.08157        -0.77778
   C       12.55115         7.42999        -0.83193
   O       10.22051         5.48435        -0.87696
   C       14.28184         2.88114        -0.30797
   C       15.68009         3.06881        -0.26400
   C       13.99613         1.49948        -0.26969
   N       13.86945         0.35739        -0.24896
   N       16.82534         3.13851        -0.22153
   H        3.56803        -2.55867         1.26230
   H        2.63466         2.02876        -0.53235
   H       -3.13126        -3.88547         2.30746
   H        8.79920         4.06210        -0.84851
   H        8.30635        -1.96876         1.24812
   H        9.29678        -2.30150         3.46721
   H        5.70656        -0.88752         5.28427
   H        4.72110        -0.52744         3.07090
   H        6.67429        -0.81101        -2.01002
   H        7.13620        -2.65180        -3.54971
   H        6.27682        -5.46418        -0.46234
   H        5.83312        -3.62382         1.09289
   H        1.58039         2.15908         1.88476
   H        0.56125         3.95558         3.19908
   H       -3.25330         3.02873         1.53137
   H       -2.23721         1.24129         0.19266
   H       -0.34916        -1.54425        -1.66654
   H       -0.88878        -1.31331        -4.03263
   H       -0.36691         2.91191        -3.74471
   H        0.14211         2.68903        -1.37509
   H       -3.15563        -4.47356        -1.26313
   H       -4.64037        -2.49143        -6.29500
   H       -4.91454        -0.21283        -7.15566
   H       -4.64306         1.73775        -5.69665
   H       -4.04700         1.42947        -3.29248
   H        7.41597        -1.95759         6.64142
   H        8.84843        -2.67260         5.88745
   H        8.37305         0.32057         6.28796
   H        9.46606        -0.68597         7.24434
   H        9.79857        -0.39275         5.53401
   H        6.48706        -6.20311        -2.78904
   H        6.80780        -5.03477        -4.07865
   H        8.83435        -5.94881        -1.97931
   H        8.79765        -6.46510        -3.66879
   H        9.15357        -4.78275        -3.26270
   H       -3.07189         4.53402         3.45524
   H       -1.49472         4.89587         4.17214
   H       -2.49374         5.94394         1.47934
   H       -2.39825         6.87830         2.97602
   H       -0.92190         6.30444         2.19326
   H       -0.07231         0.53754        -6.08995
   H       -1.76419         0.18126        -5.77434
   H       -0.50171         2.95273        -6.02264
   H       -1.66255         2.19328        -7.10529
   H       -2.16411         2.67774        -5.48445
   H       11.87508         1.77385         0.03071
   H       15.86076         5.44988        -0.29956
   H       15.88961         7.88395        -0.54380
   H       13.81844         9.15518        -0.88281
   H       11.62674         7.96767        -0.97728
*
