# ORCA input file
# SCF done       -222.430500311957          0.000862534354
! wb97x-d3 def2-SVP def2/J RIJCOSX Grid4 TightSCF
%maxcore 5000
%tddft
    Mode sTDA
    Ethresh 5.0
    maxcore 5000
end

%pal
  nprocs 6
  end
* xyz 0 1
   C        0.32819        -0.60364        -2.98654
   O       -0.01362        -1.74683        -2.74402
   C       -0.57479         0.55726        -3.14430
   C       -1.95174         0.59044        -3.05762
   C       -2.57731         1.81273        -3.24489
   C       -1.82962         2.95944        -3.51035
   C       -0.44519         2.92457        -3.59679
   C        0.18811         1.70611        -3.41085
   C        1.60489         1.33410        -3.43569
   C        2.64064         2.20499        -3.66455
   C        4.01046         1.87130        -3.69128
   N        5.14410         1.68663        -3.73165
   C        2.47415         3.58419        -3.91064
   N        2.41079         4.71324        -4.10761
   C        1.68329        -0.08727        -3.17687
   F       -2.45923         4.12692        -3.68704
   C        2.84668        -0.82296        -3.12477
   F       -3.91195         1.89302        -3.17021
   C       -2.71582       -14.45907        -2.10556
   O       -2.50923       -13.29034        -2.38318
   C       -3.97357       -15.19727        -2.35378
   C       -5.15503       -14.72616        -2.88844
   C       -6.20673       -15.62054        -3.01031
   C       -6.06075       -16.94666        -2.60656
   C       -4.87035       -17.42039        -2.07302
   C       -3.81524       -16.53166        -1.94543
   C       -2.45643       -16.70334        -1.42353
   C       -1.93457       -17.89171        -0.97361
   C       -0.62808       -18.08433        -0.48114
   N        0.41657       -18.32691        -0.06709
   C       -2.64523       -19.10949        -0.95399
   N       -3.16498       -20.13231        -0.90980
   C       -1.80239       -15.41737        -1.49062
   F       -7.09350       -17.78880        -2.73342
   C       -0.53281       -15.14480        -1.02067
   F       -7.37478       -15.20481        -3.51893
   C        2.63856        -5.93699        -2.04599
   C        3.02011        -4.61176        -2.37544
   C        4.29835        -4.13422        -2.63810
   C        4.33738        -2.77844        -2.91000
   C        3.06057        -2.18074        -2.88676
   S        1.82784        -3.36735        -2.51404
   C        5.60695        -2.06513        -3.24775
   C        5.77659        -1.92991        -4.76372
   C        3.39504        -6.94115        -1.44068
   C        2.65836        -8.14590        -1.37259
   C        1.35823        -8.04925        -1.84526
   S        1.00008        -6.45648        -2.41456
   S        2.99314        -9.72150        -0.75064
   C        1.36021       -10.26345        -1.16205
   C        0.58646        -9.22772        -1.69557
   N        4.65451        -6.78295        -0.89631
   C        4.99887        -5.61018        -0.20499
   C        5.53219        -7.88035        -0.90562
   C        4.04213        -4.89297         0.50859
   C        4.38899        -3.71693         1.14445
   C        5.69044        -3.24672         1.08958
   C        6.65022        -3.96966         0.40108
   C        6.31112        -5.14238        -0.24547
   C        5.63355        -8.67477        -2.04567
   C        6.48210        -9.76530        -2.05646
   C        7.24232       -10.06991        -0.94007
   C        7.14931        -9.27614         0.19190
   C        6.29837        -8.18853         0.21588
   N       -0.75122        -9.27479        -2.02247
   C       -1.70553        -9.86721        -1.18614
   C       -1.16840        -8.51173        -3.13121
   C       -0.44434        -8.58103        -4.31871
   C       -0.82480        -7.81784        -5.40584
   C       -1.92896        -6.98623        -5.32206
   C       -2.65402        -6.92110        -4.14332
   C       -2.27865        -7.67612        -3.04902
   C       -1.48977        -9.96596         0.18718
   C       -2.43584       -10.56626         0.99540
   C       -3.60949       -11.06037         0.45206
   C       -3.83445       -10.94683        -0.91033
   C       -2.89188       -10.35940        -1.72868
   C        1.07002       -11.63305        -0.98658
   S       -0.37092       -12.39957        -1.55718
   C        0.18373       -13.95361        -0.96853
   C        1.46526       -13.84373        -0.37605
   C        1.94151       -12.55091        -0.39592
   C        2.19042       -15.01674         0.20772
   C        3.56624       -14.67820         0.76846
   H       -2.52446        -0.29969        -2.85194
   H        0.08386         3.84004        -3.80386
   H        3.75878        -0.26813        -3.29625
   H       -5.26164       -13.70026        -3.20243
   H       -4.81067       -18.45466        -1.77704
   H       -0.00345       -15.98569        -0.59392
   H        5.16931        -4.76290        -2.66217
   H        5.62985        -1.07345        -2.79348
   H        6.44263        -2.63811        -2.84237
   H        4.95910        -1.35619        -5.19334
   H        6.70871        -1.41890        -4.98748
   H        5.79282        -2.91118        -5.23259
   H        3.02797        -5.25918         0.56482
   H        3.63702        -3.16802         1.69105
   H        5.95612        -2.32525         1.58389
   H        7.66857        -3.61359         0.35806
   H        7.05811        -5.69993        -0.79195
   H        5.04872        -8.42764        -2.91998
   H        6.55378       -10.37545        -2.94422
   H        7.90556       -10.92105        -0.95158
   H        7.73686        -9.51067         1.06675
   H        6.21555        -7.57667         1.10180
   H        0.41054        -9.23893        -4.38066
   H       -0.25932        -7.87727        -6.32368
   H       -2.22365        -6.39053        -6.17222
   H       -3.51190        -6.26997        -4.07151
   H       -2.83380        -7.61701        -2.12481
   H       -0.58165        -9.57121         0.61903
   H       -2.25514       -10.64317         2.05740
   H       -4.34429       -11.53124         1.08733
   H       -4.74669       -11.33048        -1.34049
   H       -3.05494       -10.29997        -2.79295
   H        2.89089       -12.24496         0.00550
   H        1.57985       -15.45247         1.00425
   H        2.30016       -15.78511        -0.56321
   H        3.48934       -13.95571         1.57746
   H        4.02872       -15.58054         1.16006
   H        4.21177       -14.27173        -0.00646
*
