# ORCA input file
# SCF done       -246.094396632056          0.000580304681
! wb97x-d3 def2-SVP def2/J RIJCOSX Grid4 TightSCF
%maxcore 5000
%tddft
    Mode sTDA
    Ethresh 5.0
    maxcore 5000
end

%pal
  nprocs 6
  end
* xyz 0 1
   C       -0.81746        -4.21754        -2.36344
   C        0.60827        -4.03656        -2.31140
   S        1.59860        -4.44935        -3.69662
   C        3.00475        -3.95096        -2.84459
   C        2.71970        -3.51013        -1.56868
   C        1.35791        -3.57285        -1.25511
   C        4.40288        -3.82454        -3.13080
   C        5.00835        -3.28566        -1.97344
   C        3.98774        -3.10069        -0.86127
   C        5.13540        -4.10260        -4.27995
   C        6.47806        -3.80130        -4.25741
   C        7.07000        -3.20485        -3.12118
   C        6.34370        -2.95520        -1.96096
   C        7.49852        -3.97832        -5.37145
   C        8.71048        -3.32674        -4.75365
   C        8.43366        -2.93040        -3.45775
   C       10.01818        -3.04358        -5.14436
   C       10.72671        -2.41408        -4.14139
   S        9.77556        -2.18217        -2.69108
   C        4.00635        -1.65185        -0.42122
   C        4.18293        -4.05783         0.30102
   C        7.85337        -5.43009        -5.63960
   C        6.98623        -3.28745        -6.61829
   C        5.03953        -5.14607         0.22193
   C        5.15110        -6.02823         1.28155
   C        4.40816        -5.85313         2.44060
   C        3.54387        -4.76789         2.51106
   C        3.43072        -3.88270         1.45677
   C        3.24353        -0.69943        -1.08278
   C        3.29461         0.62928        -0.70403
   C        4.12055         1.04431         0.33161
   C        4.89720         0.09115         0.97761
   C        4.84500        -1.23887         0.60648
   C        7.27387        -1.95369        -6.87064
   C        6.75988        -1.32458        -7.98979
   C        5.93716        -2.00468        -8.87704
   C        5.64337        -3.33659        -8.61466
   C        6.15731        -3.97058        -7.49999
   C        7.49596        -6.44905        -4.76916
   C        7.87748        -7.75416        -5.02468
   C        8.63175        -8.07316        -6.14489
   C        8.99632        -7.04722        -7.00798
   C        8.61716        -5.74305        -6.75812
   C        4.49764        -6.84297         3.56622
   C        3.52035        -7.99817         3.33935
   C        4.14080         2.47889         0.77469
   C        3.11591         2.70865         1.88731
   C        9.00158        -9.49740        -6.44426
   C        7.91770       -10.16257        -7.29508
   C        5.41716        -1.33452       -10.11619
   C        6.38216        -1.54784       -11.28421
   S       -1.45981        -5.72953        -2.96982
   C       -3.05331        -5.26788        -2.58442
   C       -3.12991        -3.99020        -2.10033
   C       -1.83276        -3.38387        -1.96353
   C       -4.36121        -3.32957        -1.74919
   O       -1.74953        -2.14240        -1.42392
   C       -0.74953        -1.26370        -1.89917
   C       -4.65920        -2.05563        -2.09487
   C       -3.90169        -1.26996        -3.11959
   C       -4.56580         0.04016        -3.15389
   C       -5.69667         0.02876        -2.27425
   C       -5.78976        -1.26294        -1.62652
   C       -4.40830         1.21958        -3.80596
   S       -5.63642         2.34075        -3.34693
   C       -6.37466         1.21046        -2.27601
   O       -3.01238        -1.66326        -3.83857
   C       -6.75244        -1.61400        -0.71992
   C       -7.76987        -0.71020        -0.34703
   C       -6.85849        -2.86128        -0.07338
   N       -7.00217        -3.85519         0.48319
   N       -8.60145         0.01722        -0.03746
   C       12.05475        -1.90593        -4.20364
   S       12.99431        -1.96627        -5.67347
   C       14.27783        -1.10671        -4.96073
   C       14.03430        -0.76408        -3.64723
   C       12.75161        -1.25564        -3.21416
   C       14.84301        -0.01753        -2.74329
   O       12.23151        -1.04808        -1.96638
   C       12.56998        -2.03741        -1.00113
   C       15.97921         0.71243        -2.91946
   C       16.66020         1.08546        -4.19249
   C       17.58910         2.16205        -3.82145
   C       17.55817         2.36366        -2.40481
   C       16.62825         1.42250        -1.81966
   C       18.45498         2.98862        -4.46073
   S       19.24266         4.03313        -3.33692
   C       18.40624         3.34667        -1.99464
   O       16.49817         0.62558        -5.30179
   C       16.48241         1.21021        -0.47483
   C       17.18693         1.99116         0.46556
   C       15.70619         0.19568         0.11844
   N       15.12474        -0.63511         0.65810
   N       17.74973         2.62600         1.23813
   H        0.92957        -3.32351        -0.30078
   H        4.65962        -4.52624        -5.15100
   H        6.81366        -2.51113        -1.09680
   H       10.44635        -3.26141        -6.10630
   H        5.62751        -5.30696        -0.66954
   H        5.82908        -6.86656         1.20503
   H        2.95328        -4.61344         3.40306
   H        2.76001        -3.03896         1.53391
   H        2.60777        -0.99591        -1.90500
   H        2.68750         1.35494        -1.22697
   H        5.55458         0.39450         1.78009
   H        5.45514        -1.96442         1.12497
   H        7.90487        -1.40107        -6.18978
   H        6.99905        -0.28649        -8.17313
   H        5.00138        -3.88395        -9.29042
   H        5.92167        -5.00943        -7.31827
   H        6.91336        -6.22656        -3.88733
   H        7.58559        -8.53652        -4.33830
   H        9.58727        -7.27259        -7.88450
   H        8.90624        -4.95836        -7.44233
   H        5.51323        -7.23902         3.63101
   H        4.26124        -6.35186         4.51213
   H        3.74666        -8.50696         2.40498
   H        3.58569        -8.71792         4.15202
   H        2.49984        -7.62530         3.28602
   H        5.13529         2.73810         1.14327
   H        3.90835         3.13097        -0.06968
   H        3.33985         2.07665         2.74381
   H        3.12871         3.74737         2.20917
   H        2.11541         2.46577         1.53588
   H        9.95099        -9.52837        -6.98271
   H        9.11878       -10.05369        -5.51202
   H        7.79575        -9.63008        -8.23576
   H        8.18285       -11.19481        -7.51176
   H        6.96512       -10.15100        -6.77004
   H        4.44026        -1.74673       -10.37727
   H        5.29972        -0.26382        -9.93718
   H        6.50343        -2.61002       -11.48512
   H        6.00589        -1.06479       -12.18305
   H        7.35889        -1.13112       -11.04833
   H       -3.87130        -5.92417        -2.80707
   H       -5.06912        -3.91359        -1.17494
   H        0.21341        -1.44450        -1.41546
   H       -0.63874        -1.35146        -2.98208
   H       -1.09644        -0.26131        -1.64861
   H       -3.65704         1.50468        -4.51492
   H       -7.25113         1.49679        -1.73008
   H       15.14957        -0.87760        -5.54012
   H       14.41869         0.00543        -1.74517
   H       13.64119        -2.03625        -0.78183
   H       12.01809        -1.77112        -0.10290
   H       12.26823        -3.03412        -1.33603
   H       18.68007         3.05337        -5.50631
   H       18.59455         3.72003        -1.00805
*
