# ORCA input file
# SCF done       -270.232876749096          0.000256286047
! wb97x-d3 def2-SVP def2/J RIJCOSX Grid4 TightSCF
%maxcore 5000
%tddft
    Mode sTDA
    Ethresh 5.0
    maxcore 5000
end

%pal
  nprocs 6
  end
* xyz 0 1
   C       -1.34176        -4.23206         0.27498
   C       -0.75737        -5.26758         0.95130
   C       -0.25751        -6.54690         0.50914
   C        0.64778        -7.03921         1.54762
   C        0.51626        -6.21858         2.68204
   C       -0.43450        -5.11830         2.38850
   O       -0.82205        -4.25584         3.14356
   C       -0.75952        -7.29574        -0.52410
   C       -0.29615        -8.58277        -0.85880
   N        0.06182        -9.62634        -1.17576
   C       -1.87330        -6.89063        -1.28907
   N       -2.81648        -6.61715        -1.88366
   C        1.50998        -8.12237         1.56628
   C        2.22706        -8.35985         2.72989
   C        2.08388        -7.54890         3.85565
   C        1.22135        -6.46392         3.84338
   C        2.23511         2.00483       -19.09154
   C        1.78687         3.11444       -19.77322
   C        2.28373         3.57205       -21.05166
   C        1.53827         4.78345       -21.40277
   C        0.61829         5.06006       -20.37801
   C        0.73690         4.02877       -19.32334
   C        1.61178         5.61893       -22.50582
   C        0.75985         6.71312       -22.55251
   C       -0.14916         6.97904       -21.52943
   C       -0.22965         6.14788       -20.42327
   O        0.08078         3.97401       -18.29975
   C        3.27214         3.00954       -21.82028
   C        3.70060         3.52651       -23.06086
   C        4.00838         1.84982       -21.50250
   N        4.65564         0.91699       -21.32405
   N        4.09864         3.89218       -24.07375
   C       -1.32391        -3.93942        -1.09924
   S       -0.15118        -4.66009        -2.20966
   C       -0.75254        -3.69209        -3.49428
   C       -1.81335        -2.85005        -3.06938
   C       -2.11309        -2.97852        -1.72173
   C       -0.55027        -3.42766        -4.84214
   C       -1.49459        -2.42974        -5.21178
   N       -2.26309        -2.10488        -4.12903
   S        0.46448        -3.93070        -6.15450
   C       -0.36911        -2.80689        -7.17578
   C       -1.37694        -2.08171        -6.56080
   C       -0.19619        -2.39295        -8.53145
   C       -1.11896        -1.34878        -8.76744
   C       -2.01114        -1.12772        -7.54798
   C        0.71490        -2.81325        -9.49640
   C        0.71325        -2.14245       -10.69590
   C       -0.17010        -1.06279       -10.91231
   C       -1.09995        -0.66046        -9.95693
   C        1.61753        -2.35744       -11.90617
   C        1.12502        -1.26286       -12.83019
   C        0.11014        -0.54501       -12.21276
   C        1.40058        -0.74603       -14.10089
   C        0.59276         0.38959       -14.39046
   S       -0.52420         0.78050       -13.12450
   N        2.23369        -0.98696       -15.16079
   C        1.99410        -0.01289       -16.09685
   C        0.96754         0.86218       -15.64260
   C        2.48588         0.33159       -17.33750
   C        1.86008         1.47536       -17.85572
   S        0.62389         2.11677       -16.76691
   C       -3.42979        -1.53232        -7.91472
   C       -1.88708         0.29944        -7.04263
   C        3.04369        -2.14747       -11.43472
   C        1.35586        -3.70807       -12.55203
   C       -2.97888         1.08860        -6.71119
   C       -2.79619         2.37520        -6.23465
   C       -1.52493         2.90543        -6.06982
   C       -0.43324         2.10801        -6.39258
   C       -0.61029         0.82548        -6.87222
   C       -4.02152        -2.67410        -7.39094
   C       -5.30392        -3.03951        -7.76036
   C       -6.03079        -2.28345        -8.66835
   C       -5.43642        -1.14322        -9.19409
   C       -4.15709        -0.77411        -8.82698
   C        3.71223        -3.15459       -10.74645
   C        4.99507        -2.95534       -10.27410
   C        5.64541        -1.74193       -10.45889
   C        4.96575        -0.72854       -11.11949
   C        3.68138        -0.92444       -11.59630
   C        0.04114        -4.14372       -12.67657
   C       -0.25046        -5.34073       -13.30080
   C        0.75977        -6.13779       -13.82454
   C        2.06993        -5.69643       -13.70731
   C        2.36794        -4.49819       -13.08161
   F        2.79153        -7.81960         4.96044
   F       -0.95198         8.04785       -21.61603
   C       -3.27820        -1.08605        -4.05065
   C       -2.72939         0.20035        -3.43853
   C        3.18930        -2.05283       -15.32545
   C        4.60119        -1.62727       -14.93013
   C       -1.33064         4.28149        -5.50327
   C       -1.19205         4.21552        -3.98072
   C       -7.43697        -2.65858        -9.03509
   C       -8.43257        -2.00784        -8.07244
   C        7.06177        -1.55068       -10.00153
   C        8.03551        -1.96943       -11.10536
   C        0.43811        -7.41530       -14.54348
   C        0.19637        -7.14472       -16.03003
   F        3.07943        -9.39115         2.76812
   F        0.81654         7.53222       -23.60989
   H       -1.80150        -3.47696         0.90597
   H        1.65239        -8.77270         0.71848
   H        1.11050        -5.83734         4.71392
   H        3.01935         1.43339       -19.57289
   H        2.29552         5.45944       -23.32309
   H       -0.93079         6.34903       -19.62914
   H       -2.87808        -2.43776        -1.19481
   H        1.39449        -3.62312        -9.28502
   H       -1.75018         0.17552       -10.15845
   H        3.26286        -0.18340       -17.87356
   H       -3.98381         0.70973        -6.82591
   H       -3.66034         2.97559        -5.98851
   H        0.56708         2.49801        -6.27060
   H        0.25131         0.22227        -7.12155
   H       -3.48466        -3.29552        -6.69000
   H       -5.74109        -3.93241        -7.33712
   H       -5.98043        -0.53698        -9.90430
   H       -3.72667         0.12105        -9.24821
   H        3.23195        -4.10827       -10.58563
   H        5.49779        -3.75492        -9.74907
   H        5.44427         0.22984       -11.26342
   H        3.17400        -0.11095       -12.09434
   H       -0.76130        -3.54045       -12.27690
   H       -1.27888        -5.66238       -13.37999
   H        2.87377        -6.29751       -14.10807
   H        3.40112        -4.19329       -12.99587
   H       -3.64600        -0.89808        -5.06045
   H       -4.10243        -1.47087        -3.44242
   H       -1.90834         0.58380        -4.03921
   H       -3.51118         0.95319        -3.40050
   H       -2.36828         0.01783        -2.42920
   H        2.86136        -2.89930       -14.72013
   H        3.17364        -2.35272       -16.37768
   H        4.64064        -1.37295       -13.87365
   H        5.29568        -2.44124       -15.11854
   H        4.91286        -0.76218       -15.51081
   H       -0.43147         4.73275        -5.92700
   H       -2.18380         4.91218        -5.76003
   H       -0.33839         3.60062        -3.70412
   H       -1.04996         5.21156        -3.56879
   H       -2.08480         3.78007        -3.53701
   H       -7.65388        -2.32981       -10.05330
   H       -7.55321        -3.74322        -8.99312
   H       -8.34056        -0.92444        -8.10732
   H       -9.45126        -2.27823        -8.33952
   H       -8.24247        -2.33542        -7.05273
   H        7.23253        -0.50233        -9.74937
   H        7.24809        -2.15251        -9.11001
   H        7.87461        -1.37102       -11.99957
   H        9.06321        -1.83427       -10.77735
   H        7.88815        -3.01601       -11.36288
   H        1.26508        -8.11979       -14.43587
   H       -0.45590        -7.86795       -14.11051
   H        1.08234        -6.70682       -16.48469
   H       -0.03986        -8.06944       -16.55078
   H       -0.63219        -6.45186       -16.15894
*
