# ORCA input file
# SCF done       -265.045095512303          0.008227029768
! wb97x-d3 def2-SVP def2/J RIJCOSX Grid4 TightSCF
%maxcore 5000
%tddft
    Mode sTDA
    Ethresh 5.0
    maxcore 5000
end

%pal
  nprocs 6
  end
* xyz 0 1
   C        2.13043        -2.35889         0.02616
   C        2.30028        -1.61209         1.21911
   C        1.43336        -0.57658         1.56464
   C        0.35271        -0.36052         0.74301
   C        0.12103        -1.18802        -0.38233
   C        1.03152        -2.16723        -0.77518
   C        3.24150        -3.38372        -0.12837
   C        3.89901        -3.28920         1.22459
   C        3.39008        -2.20133         1.92792
   C        4.85829        -3.99511         1.93094
   C        5.06816        -3.45978         3.19604
   S        4.11309        -2.01573         3.47392
   C       -0.77420         0.64741         0.91335
   C       -1.73744         0.17986        -0.14959
   C       -1.16540        -0.84454        -0.89378
   C       -3.02641         0.49867        -0.55324
   C       -3.46407        -0.32133        -1.58522
   S       -2.22528        -1.45627        -2.09476
   C        5.84611        -4.02326         4.22459
   C       -4.75068        -0.38544        -2.16567
   C       -1.31050         0.56322         2.32710
   C       -0.36630         2.06532         0.54877
   C        2.67894        -4.73991        -0.48924
   C        4.30054        -2.94834        -1.13437
   C        2.40645        -5.03614        -1.82016
   C        1.87920        -6.26286        -2.17247
   C        1.60843        -7.22565        -1.20803
   C        1.86838        -6.91962         0.12057
   C        2.39009        -5.68964         0.47955
   C        5.27765        -3.86037        -1.51652
   C        6.27918        -3.49055        -2.39198
   C        6.33902        -2.19984        -2.90362
   C        5.37134        -1.28856        -2.50487
   C        4.36324        -1.65454        -1.63010
   C       -0.71198         1.30366         3.33958
   C       -1.15698         1.19890         4.64349
   C       -2.20550         0.34986         4.97353
   C       -2.79651        -0.39199         3.95955
   C       -2.35159        -0.29449         2.65374
   C       -1.23808         3.11110         0.82984
   C       -0.92091         4.40582         0.46891
   C        0.26802         4.69083        -0.19181
   C        1.13054         3.64174        -0.47793
   C        0.81787         2.34282        -0.11840
   C       -2.71959         0.27522         6.38236
   C        0.63358         6.10473        -0.54058
   C        7.45228        -1.79229        -3.82492
   C        1.10429        -8.58286        -1.60537
   C        8.67016        -1.32796        -3.02189
   C        2.27652        -9.50470        -1.94815
   C       -3.82923         1.30619         6.59923
   C        1.39647         6.75793         0.61342
   S       -5.21250        -1.72248        -3.16269
   C       -6.83534        -1.10206        -3.31951
   C       -6.96346         0.11307        -2.63468
   C       -5.81439         0.51947        -1.97843
   S        6.55407        -5.59517         4.08129
   C        7.10547        -5.53796         5.73860
   C        6.77025        -4.31176         6.32964
   C        6.05802        -3.46573         5.49900
   O        5.55930        -2.24021         5.75587
   C        5.71546        -1.71776         7.06472
   C        5.05761        -0.34863         7.09361
   C        7.74380        -6.55526         6.44946
   C        8.05993        -7.84128         6.06689
   C        7.80792        -8.41951         4.74731
   C        8.22274        -9.83264         4.83198
   C        8.72322       -10.09038         6.12008
   C        8.65331        -8.85563         6.90730
   C        8.15534       -10.81284         3.86136
   C        8.60139       -12.08707         4.17761
   C        9.09548       -12.33005         5.44961
   C        9.16857       -11.36079         6.44236
   O        7.34642        -7.86427         3.76362
   C        9.06880        -8.72974         8.20915
   C        8.99859        -7.55569         8.98583
   C        9.62647        -9.78014         8.96740
   N       10.09061       -10.58853         9.64032
   N        8.97427        -6.64749         9.68889
   F        9.51653       -13.57160         5.74344
   O       -5.63855         1.62983        -1.23084
   C       -6.72136         2.54252        -1.13989
   C       -6.25811         3.72252        -0.30143
   C       -7.91449        -1.69981        -3.97352
   C       -7.99421        -2.90832        -4.62986
   C       -6.88729        -3.84844        -4.80786
   C       -7.45513        -5.02543        -5.49308
   C       -8.82145        -4.80199        -5.73844
   C       -9.18102        -3.47598        -5.22745
   C       -6.82615        -6.19760        -5.86450
   C       -7.57571        -7.17735        -6.49790
   C       -8.92249        -6.94788        -6.73240
   C       -9.57593        -5.77767        -6.36697
   O       -5.72735        -3.70829        -4.45668
   C      -10.42850        -2.91108        -5.31577
   C      -10.79072        -1.63711        -4.83260
   C      -11.54168        -3.53742        -5.91400
   N      -11.16848        -0.61303        -4.47233
   N      -12.48996        -3.99023        -6.37419
   F       -9.63725        -7.91039        -7.33881
   H        1.59366         0.00070         2.46200
   H        0.85185        -2.76668        -1.65396
   H        5.37186        -4.87689         1.59275
   H       -3.65223         1.25337        -0.11731
   H        2.62504        -4.30595        -2.58669
   H        1.67610        -6.47717        -3.21232
   H        1.66175        -7.65308         0.88731
   H        2.57862        -5.47275         1.52092
   H        5.24714        -4.86763        -1.12823
   H        7.02599        -4.21501        -2.68451
   H        5.40002        -0.27838        -2.88836
   H        3.62146        -0.92518        -1.33698
   H        0.10236         1.97391         3.10315
   H       -0.68188         1.78513         5.41755
   H       -3.61452        -1.05875         4.19429
   H       -2.82020        -0.89042         1.88413
   H       -2.16721         2.90692         1.34213
   H       -1.60642         5.20870         0.70312
   H        2.06068         3.84132        -0.99123
   H        1.50241         1.54270        -0.36041
   H       -3.11244        -0.72389         6.58138
   H       -1.90627         0.46916         7.08464
   H        1.25787         6.11627        -1.43612
   H       -0.27016         6.68225        -0.74603
   H        7.73624        -2.63881        -4.45680
   H        7.11886        -0.97644        -4.47197
   H        0.52907        -9.02061        -0.78733
   H        0.45027        -8.49475        -2.47519
   H        9.02646        -2.13597        -2.38216
   H        9.47574        -1.03273        -3.69011
   H        8.41100        -0.47735        -2.39217
   H        2.93451        -9.61416        -1.08890
   H        1.91637       -10.48901        -2.23848
   H        2.85511        -9.08934        -2.77051
   H       -4.65664         1.12041         5.91793
   H       -4.20154         1.25622         7.61972
   H       -3.45345         2.31034         6.41494
   H        2.30655         6.20112         0.82657
   H        1.66508         7.78125         0.36184
   H        0.78403         6.76970         1.51214
   H       -7.89669         0.64697        -2.62558
   H        7.03759        -4.09320         7.34802
   H        5.23880        -2.39078         7.79016
   H        6.78339        -1.63873         7.30781
   H        4.01090        -0.43548         6.81506
   H        5.13042         0.07432         8.09091
   H        5.54843         0.31437         6.38651
   H        7.99177        -6.27631         7.46652
   H        7.76128       -10.58109         2.88430
   H        8.56531       -12.89201         3.46093
   H        9.56653       -11.62218         7.40859
   H       -7.01073         2.87540        -2.14517
   H       -7.58401         2.05166        -0.67022
   H       -5.38849         4.18455        -0.76107
   H       -7.05489         4.45647        -0.22655
   H       -5.98744         3.38872         0.69670
   H       -8.82233        -1.10984        -3.92854
   H       -5.77552        -6.33579        -5.66282
   H       -7.13647        -8.11227        -6.80766
   H      -10.62629        -5.66886        -6.58028
*
