# ORCA input file
# SCF done       -240.177884094172          0.003374086803
! wb97x-d3 def2-SVP def2/J RIJCOSX Grid4 TightSCF
%maxcore 5000
%tddft
    Mode sTDA
    Ethresh 5.0
    maxcore 5000
end

%pal
  nprocs 6
  end
* xyz 0 1
   C        3.13202         1.11443        -2.16032
   C        2.74503         0.93363        -0.84069
   C        2.94854         2.47344        -2.56181
   C        2.42553         3.16434        -1.44350
   C        2.44685         2.27328        -0.20603
   C        1.10155         2.28761         0.49244
   C        3.59266         2.72041         0.69249
   C        3.04820         3.06721        -3.81749
   C        2.52599         4.33152        -3.95781
   C        1.90205         4.97761        -2.86318
   C        1.88035         4.41675        -1.58722
   C        2.38628         5.16054        -5.22408
   C        1.41512         6.21800        -4.76226
   C        1.25116         6.13571        -3.38094
   C        3.65931         5.91938        -5.57764
   C        1.92382         4.29008        -6.37131
   C        0.67175         7.23081        -5.34299
   C       -0.07880         7.93350        -4.40608
   S        0.22419         7.35386        -2.76678
   C        1.96973        -6.15162        -0.25922
   C        1.22803        -6.90721         0.61640
   C        1.01036        -8.33183         0.44370
   C       -0.10155        -8.72054         1.31099
   C       -0.46624        -7.61112         2.09101
   C        0.38001        -6.45196         1.73716
   C       -0.78261        -9.91818         1.45081
   C       -1.81172        -9.95578         2.38181
   C       -2.17383        -8.87040         3.16565
   C       -1.48858        -7.67493         3.01856
   O        0.34290        -5.36559         2.28166
   C        1.74387        -9.19621        -0.32570
   C        2.89674        -8.86084        -1.06869
   C        1.47280       -10.57685        -0.43636
   N        1.30974       -11.70424        -0.57902
   N        3.85596        -8.67767        -1.67339
   F       -2.49434       -11.10333         2.52817
   C       -1.01461         8.97139        -4.56211
   C       -1.81077         9.21933        -5.65008
   C       -2.72703        10.33358        -5.77029
   C       -3.69061        10.00468        -6.81903
   C       -3.31934         8.78034        -7.40001
   C       -2.10123         8.26110        -6.74118
   O       -1.52819         7.22849        -7.01682
   C       -2.65679        11.52111        -5.09089
   C       -1.65661        11.84024        -4.14749
   N       -0.86218        12.16865        -3.38641
   C       -3.53805        12.60309        -5.29538
   N       -4.21476        13.51997        -5.42498
   C       -4.82515        10.66510        -7.25946
   C       -5.55054        10.06368        -8.27930
   C       -5.19132         8.85881        -8.86511
   C       -4.05533         8.20332        -8.41744
   F       -6.66205        10.67757        -8.71658
   C        0.58237         4.17059        -6.70294
   C        0.18972         3.32139        -7.72212
   C        1.11858         2.56475        -8.42299
   C        2.46090         2.69076        -8.08752
   C        2.86029         3.54129        -7.07533
   C        4.71243         6.04956        -4.68486
   C        5.81289         6.82260        -5.01148
   C        5.88444         7.48966        -6.22610
   C        4.82983         7.34634        -7.12004
   C        3.72914         6.57634        -6.80045
   C        0.94863         2.60753         1.83491
   C       -0.30716         2.60529         2.41654
   C       -1.43692         2.27804         1.68048
   C       -1.27788         1.94976         0.33905
   C       -0.02808         1.95386        -0.24774
   C        4.59755         1.84711         1.08502
   C        5.62226         2.27262         1.91197
   C        5.68066         3.58303         2.36334
   C        4.67951         4.45837         1.96129
   C        3.65321         4.03638         1.13901
   C        2.69125        -0.42413        -0.51036
   C        3.05688        -1.24390        -1.61535
   S        3.48653        -0.34001        -3.03136
   N        2.29287        -1.21452         0.53222
   C        2.37149        -2.51745         0.11061
   C        2.85856        -2.56222        -1.22430
   C        1.86950        -0.80969         1.84982
   C        2.95522        -1.05967         2.89399
   C        2.02503        -3.75701         0.62481
   C        2.23537        -4.77524        -0.29722
   S        2.92997        -4.16943        -1.81767
   C        6.76539         4.03263         3.29813
   C        6.33232         3.83727         4.75259
   C       -2.80135         2.33222         2.30296
   C       -3.41913         3.71821         2.10409
   C        0.69390         1.67068        -9.55221
   C        0.74117         2.42831       -10.88063
   C        7.08385         8.31951        -6.58296
   C        8.10457         7.49159        -7.36565
   H        3.46160         2.52359        -4.65256
   H        1.38122         4.92786        -0.77808
   H        0.66190         7.46589        -6.38959
   H        2.36877        -6.68279        -1.11613
   H       -0.55642       -10.79877         0.87290
   H       -2.98257        -8.97463         3.87126
   H       -1.74176        -6.80632         3.60618
   H       -1.17111         9.58161        -3.67978
   H       -5.16313        11.59945        -6.84277
   H       -5.80351         8.45196        -9.65429
   H       -3.74492         7.26225        -8.84352
   H       -0.16147         4.75023        -6.17757
   H       -0.85863         3.24529        -7.97261
   H        3.20164         2.11447        -8.62372
   H        3.91028         3.63597        -6.83593
   H        4.67727         5.55011        -3.72740
   H        6.62381         6.91573        -4.30300
   H        4.86671         7.85410        -8.07324
   H        2.91488         6.48011        -7.50385
   H        1.81020         2.85896         2.43598
   H       -0.40631         2.86102         3.46186
   H       -2.14362         1.68824        -0.25222
   H        0.07848         1.69894        -1.29302
   H        4.59423         0.82392         0.74057
   H        6.39160         1.57226         2.20583
   H        4.70417         5.48613         2.29440
   H        2.88921         4.73976         0.84781
   H        1.61444         0.25043         1.81581
   H        0.97023        -1.37801         2.10802
   H        3.85041        -0.48773         2.66052
   H        2.59538        -0.75407         3.87210
   H        3.21284        -2.11564         2.93129
   H        1.61668        -3.94141         1.60039
   H        7.67547         3.45895         3.11332
   H        6.98519         5.08816         3.12774
   H        6.11820         2.78866         4.94685
   H        7.11858         4.16201         5.42987
   H        5.43436         4.41456         4.96139
   H       -3.44808         1.58039         1.84639
   H       -2.73014         2.12000         3.37163
   H       -3.51507         3.94137         1.04371
   H       -4.40518         3.76418         2.55984
   H       -2.79046         4.48097         2.55813
   H        1.35764         0.80522        -9.60816
   H       -0.32239         1.31142        -9.37846
   H        1.75167         2.77757       -11.08110
   H        0.42775         1.78363       -11.69849
   H        0.08170         3.29248       -10.84571
   H        6.77273         9.17236        -7.19000
   H        7.55179         8.70083        -5.67336
   H        7.66252         7.11534        -8.28522
   H        8.97027         8.09867        -7.61944
   H        8.43741         6.64226        -6.77305
*
