# ORCA input file
# SCF done       -225.204044743415          0.000747500937
! wb97x-d3 def2-SVP def2/J RIJCOSX Grid4 TightSCF
%maxcore 5000
%tddft
    Mode sTDA
    Ethresh 5.0
    maxcore 5000
end

%pal
  nprocs 6
  end
* xyz 0 1
   C       -0.19650         2.55277        -0.26656
   O       -0.90129         3.50196        -0.54502
   C        1.27879         2.56663        -0.23291
   C        2.13032         3.62501        -0.48247
   C        3.49643         3.40374        -0.38426
   C        3.98123         2.14968        -0.04136
   C        3.12724         1.08320         0.20756
   C        1.76013         1.29244         0.10856
   C        0.62033         0.39504         0.28872
   C        0.71784        -0.95211         0.52274
   C       -0.35006        -1.87050         0.61487
   N       -1.14309        -2.69889         0.68762
   C        1.93949        -1.64198         0.67864
   N        2.88895        -2.27146         0.82234
   C       -0.59336         1.17758         0.11312
   C       -1.84914         0.68054         0.34412
   C       -3.12751         1.24855         0.20085
   C       -3.56916         2.47411        -0.27607
   C       -4.95217         2.56542        -0.26820
   C       -5.60941         1.41256         0.21426
   S       -4.48078         0.20358         0.66890
   C       -6.99455         1.54475         0.19236
   C       -8.19495         0.69133         0.50029
   C       -8.09058        -0.55789        -0.35710
   C       -7.25843        -1.59120         0.05745
   C       -7.08913        -2.71336        -0.72928
   C       -7.74108        -2.83199        -1.95057
   C       -7.59280        -4.07377        -2.78101
   C       -8.63905        -5.11438        -2.37634
   C       -8.56530        -1.79373        -2.36180
   C       -8.73429        -0.66409        -1.58096
   C       -8.34582         0.35590         1.97240
   C       -7.73074         1.12335         2.95088
   C       -7.90474         0.82333         4.28956
   C       -8.70051        -0.24291         4.68466
   C       -8.92076        -0.54340         6.13899
   C      -10.15852         0.19312         6.65549
   C       -9.32716        -0.99779         3.70118
   C       -9.15478        -0.70398         2.36242
   C       -9.32037         1.62967         0.10064
   C       -8.80987         2.86464        -0.36624
   C       -7.38420         2.77533        -0.31136
   S       -6.07037         3.81074        -0.75285
   C       -9.64575         3.89372        -0.79233
   C      -11.00019         3.66056        -0.75116
   C      -12.12478         4.58099        -1.19133
   C      -12.33891         5.77304        -0.27233
   C      -11.73957         5.85887         0.97529
   C      -12.01127         6.93090         1.80707
   C      -12.89386         7.93018         1.42189
   C      -13.15805         9.11001         2.31236
   C      -12.17163        10.23995         2.01024
   C      -13.49582         7.83370         0.17316
   C      -13.22576         6.76930        -0.66395
   C      -11.88916         5.01237        -2.62482
   C      -12.38281         4.26785        -3.68646
   C      -12.13387         4.65570        -4.98975
   C      -11.37711         5.78623        -5.26603
   C      -11.15487         6.23398        -6.68165
   C      -12.29703         7.14551        -7.13535
   C      -10.87326         6.51954        -4.19968
   C      -11.12217         6.13828        -2.89513
   C      -13.31525         3.67851        -1.00927
   C      -12.92998         2.47088        -0.45171
   C      -11.51020         2.42019        -0.29681
   C      -10.67512         1.39884         0.14845
   S      -14.23770         1.37260        -0.16422
   C      -15.33934         2.55328        -0.82526
   C      -14.68969         3.74091        -1.22661
   S      -15.78473         4.87502        -1.91552
   C      -17.12013         3.75388        -1.66976
   C      -16.69819         2.56555        -1.06674
   C      -18.45946         3.95632        -2.03368
   C      -19.06127         5.01246        -2.66866
   C      -20.46291         5.09579        -3.03254
   C      -21.44980         4.18109        -2.77144
   C      -22.79764         4.33527        -3.16008
   N      -23.90834         4.38631        -3.44617
   C      -21.28873         2.96223        -2.07974
   N      -21.24883         1.95433        -1.52967
   C      -20.65622         6.36129        -3.74202
   C      -21.77828         6.93043        -4.32340
   C      -21.65005         8.16810        -4.94133
   C      -20.43482         8.83563        -4.98478
   C      -19.30432         8.27524        -4.40680
   C      -19.42860         7.04436        -3.79349
   C      -18.39285         6.23958        -3.12142
   O      -17.22246         6.54596        -2.97896
   H        1.72807         4.59159        -0.74443
   H        4.18774         4.21105        -0.57373
   H        5.04709         1.99439         0.03376
   H        3.53538         0.12225         0.47350
   H       -1.89034        -0.33918         0.70928
   H       -2.89985         3.24603        -0.60810
   H       -6.74446        -1.51697         1.00496
   H       -6.43601        -3.50506        -0.39244
   H       -7.71742        -3.83024        -3.83806
   H       -6.59509        -4.49418        -2.64136
   H       -9.64206        -4.71839        -2.51995
   H       -8.53167        -6.01491        -2.97636
   H       -8.52257        -5.37942        -1.32788
   H       -9.07828        -1.86334        -3.31056
   H       -9.37102         0.13597        -1.92988
   H       -7.10721         1.95992         2.66994
   H       -7.41047         1.42649         5.03782
   H       -8.04890        -0.23226         6.71771
   H       -9.05770        -1.61764         6.27796
   H      -11.04116        -0.11270         6.09826
   H      -10.31934        -0.02518         7.70858
   H      -10.03611         1.26757         6.53772
   H       -9.95391        -1.83044         3.98703
   H       -9.63893        -1.31291         1.61279
   H       -9.23787         4.82723        -1.14793
   H      -11.05795         5.08791         1.30432
   H      -11.53375         6.98467         2.77523
   H      -14.17655         9.47046         2.15499
   H      -13.05739         8.81469         3.35874
   H      -12.26436        10.55511         0.97334
   H      -12.36479        11.09603         2.65252
   H      -11.15019         9.90458         2.17582
   H      -14.19103         8.59645        -0.14615
   H      -13.70619         6.71050        -1.62959
   H      -12.96823         3.37967        -3.49737
   H      -12.53254         4.06859        -5.80485
   H      -10.21003         6.77613        -6.75538
   H      -11.10338         5.36553        -7.34163
   H      -12.35753         8.02249        -6.49471
   H      -12.13887         7.47305        -8.16030
   H      -13.24649         6.61765        -7.08084
   H      -10.27790         7.40070        -4.39257
   H      -10.72918         6.72772        -2.07923
   H      -11.08329         0.46243         0.49571
   H      -17.37303         1.76086        -0.83612
   H      -19.09569         3.11882        -1.77370
   H      -22.73591         6.43685        -4.30767
   H      -22.51956         8.61711        -5.39745
   H      -20.36962         9.79646        -5.47271
   H      -18.34769         8.77428        -4.42918
*
