# ORCA input file
# SCF done       -200.445182100266          0.000775049534
! wb97x-d3 def2-SVP def2/J RIJCOSX Grid4 TightSCF
%maxcore 5000
%tddft
    Mode sTDA
    Ethresh 5.0
    maxcore 5000
end

%pal
  nprocs 6
  end
* xyz 0 1
   C       18.20016        -0.30859         0.35815
   O       17.93453         0.55146         1.18280
   C       17.23279        -1.01702        -0.49447
   C       15.85486        -0.82112        -0.53900
   C       15.20481        -1.63022        -1.43941
   C       15.87750        -2.56232        -2.24056
   C       17.23755        -2.76246        -2.20818
   C       17.91837        -1.95374        -1.29420
   C       19.34451        -1.88053        -0.97817
   C       20.31482        -2.69551        -1.50448
   C       21.68809        -2.65230        -1.18684
   N       22.81919        -2.68511        -0.98425
   C       20.07345        -3.72533        -2.43780
   N       19.95741        -4.58191        -3.19387
   C       19.52227        -0.83672         0.01226
   C       20.72671        -0.39905         0.50290
   C       21.02325         0.55607         1.48221
   S       19.81962         1.42524         2.43303
   C       21.06972         2.20327         3.32728
   C       22.34778         1.82367         2.88342
   C       22.33642         0.89388         1.85165
   C       23.58238         0.37337         1.21279
   S       23.65416         2.58484         3.77363
   C       22.47693         3.38772         4.75438
   C       21.15270         3.10609         4.39095
   N       20.29057         3.73764         5.24696
   C       21.04613         4.42556         6.17330
   C       22.42575         4.19730         5.89716
   C       23.43527         4.62572         6.78955
   N       24.74587         4.47883         6.68208
   S       25.43999         5.03998         8.03212
   N       24.09396         5.49223         8.80929
   C       23.05268         5.22502         8.03759
   C       21.68627         5.49311         8.27881
   C       20.69226         5.20371         7.30236
   N       19.47160         5.68196         7.74745
   C       19.67155         6.20101         9.00204
   C       21.02088         6.09240         9.35998
   S       21.36563         6.69030        10.94387
   C       19.67006         7.07380        11.15145
   C       18.90263         6.77474        10.01534
   S       17.25393         7.21146        10.23981
   C       17.59037         7.70855        11.90073
   C       18.93928         7.60054        12.22402
   C       19.58373         8.13936        13.46047
   C       16.49575         8.21634        12.63463
   C       16.25517         8.01868        13.96771
   C       15.24380         8.67307        14.76687
   C       14.56874         9.82082        14.43951
   C       13.59975        10.42978        15.26291
   N       12.79735        10.96385        15.88642
   C       14.77597        10.55371        13.25213
   N       14.91347        11.20757        12.31807
   C       15.13265         7.93993        16.02509
   C       14.30858         8.12330        17.12303
   C       14.42950         7.25057        18.19923
  Cl       13.41081         7.46706        19.56495
   C       15.35871         6.20469        18.18454
  Cl       15.48270         5.14691        19.53177
   C       16.18287         6.01526        17.08198
   C       16.06288         6.88609        16.01900
   C       16.80360         6.87979        14.73833
   O       17.59299         6.03970        14.36594
   C       18.89445         3.35980         5.28339
   C       18.36173         6.16757         6.95433
   C       14.60558        -3.03111        -2.90144
   C       13.85615        -1.99272        -2.00813
   C       14.00613        -4.38078        -2.43472
   C       14.46242        -4.58417        -1.01116
   C       13.82612        -3.70204        -0.25214
   C       12.92762        -2.88650        -1.14891
   C       12.55065        -3.94914        -2.19347
   C       23.89122         1.13084        -0.08148
   C       18.09789         3.97166         4.13092
   C       18.46659         7.67504         6.72303
   C       20.39257         7.08183        14.21108
   H       15.37843        -0.08847         0.09363
   H       17.73794        -3.48026        -2.83616
   H       21.60771        -0.85593         0.07343
   H       24.40815         0.51334         1.91320
   H       23.49501        -0.69285         0.99697
   H       20.25675         8.94763        13.15515
   H       18.82357         8.56260        14.11766
   H       15.75533         8.75269        12.05173
   H       13.57653         8.91317        17.16532
   H       16.89996         5.21001        17.05627
   H       18.48114         3.63096         6.25547
   H       18.84470         2.26898         5.19358
   H       18.36140         5.67112         5.99101
   H       17.43310         5.93690         7.48564
   H       14.55511        -2.90577        -3.98122
   H       13.31539        -1.18918        -2.50465
   H       14.17680        -5.20968        -3.11623
   H       15.22022        -5.28791        -0.72031
   H       13.94614        -3.52124         0.80011
   H       12.11547        -2.35484        -0.65977
   H       12.06814        -3.53601        -3.07828
   H       11.93751        -4.74798        -1.77910
   H       24.02084         2.19124         0.12258
   H       24.80581         0.74618        -0.52376
   H       23.08342         1.01229        -0.80007
   H       18.26912         5.04279         4.04513
   H       18.38429         3.50907         3.19076
   H       17.03737         3.79565         4.28628
   H       19.40484         7.91549         6.22714
   H       17.64423         8.00325         6.09356
   H       18.41898         8.22003         7.66161
   H       21.21380         6.71962        13.59867
   H       20.80165         7.51250        15.12141
   H       19.75497         6.24283        14.47337
*
