# ORCA input file
# SCF done       -301.700804796256          0.000622204039
! wb97x-d3 def2-SVP def2/J RIJCOSX Grid4 TightSCF
%maxcore 5000
%tddft
    Mode sTDA
    Ethresh 5.0
    maxcore 5000
end

%pal
  nprocs 6
  end
* xyz 0 1
   C        2.61819         1.04230        -0.52823
   C        2.58007        -0.35602        -0.31422
   C        1.38518        -1.01173        -0.13480
   C        0.22334        -0.24590        -0.19075
   C        0.26021         1.15146        -0.41205
   C        1.45595         1.80788        -0.58500
   C        3.99290         1.41009        -0.65479
   C        4.81239         0.29795        -0.51439
   C        3.98316        -0.94200        -0.29378
   S        4.87940         2.85241        -0.92627
   C        6.37864         1.94874        -0.86998
   C        6.16116         0.59649        -0.64460
   C       -1.15071        -0.61620        -0.06852
   C       -1.97263         0.49116        -0.22915
   C       -1.14502         1.73235        -0.45035
   S       -2.03293        -2.05772         0.21891
   C       -3.53597        -1.16397         0.12080
   C       -3.32195         0.18662        -0.11830
   C        7.62673         2.61768        -1.04371
   C        4.26555        -1.89878        -1.43639
   C        4.19674        -1.58986         1.06099
   C       -1.44417         2.69753         0.68114
   C       -1.35199         2.37314        -1.80966
   C       -4.78272        -1.84029         0.27407
   C        7.68145         4.03060        -1.18295
   C        8.93202         4.71491        -1.34645
   C       10.16625         4.00336        -1.38581
   C       10.06654         2.62055        -1.25409
   C        8.85442         1.96113        -1.08854
   C       -4.82479        -3.23397         0.54769
   C       -6.07248        -3.92558         0.70212
   C       -7.31773        -3.24376         0.57744
   C       -7.23097        -1.87994         0.30915
   C       -6.02093        -1.21132         0.16706
   N        6.64897         4.86868        -1.17480
   S        7.19341         6.37105        -1.35517
   N        8.76398         6.03170        -1.45159
   N       -3.78108        -4.04502         0.69355
   S       -4.31248        -5.53226         0.99663
   N       -5.89107        -5.22005         0.95656
   C       11.35275         4.77949        -1.54679
   C       12.67556         4.47412        -1.65117
   C       -8.50018        -4.02459         0.74604
   C       -9.83163        -3.75478         0.65366
   C       13.68263         5.52190        -1.80093
   C       14.93713         4.88508        -1.89272
   C       14.84597         3.48942        -1.81425
   C       13.40006         3.16360        -1.65468
   C      -10.83154        -4.79437         0.88650
   C      -12.09778        -4.20818         0.68391
   C      -12.02107        -2.85302         0.33755
   C      -10.57306        -2.50029         0.30867
   C       13.66444         6.90124        -1.86082
   C       14.87195         7.60167        -2.00620
   C       16.10064         6.96508        -2.09623
   C       16.14142         5.56077        -2.03985
   C       17.31443         4.79012        -2.11529
   C       17.22897         3.40900        -2.03979
   C       16.00111         2.74270        -1.88788
   C       17.36998         7.68771        -2.24513
   N       18.51258         6.89186        -2.34582
   C       18.59245         5.50647        -2.27787
   C       19.78136         7.58697        -2.53423
   C       20.27298         7.52489        -3.98606
   C       19.24101         8.11884        -4.94065
   C       21.59716         8.27578        -4.09115
   C      -13.18827        -2.15751         0.11142
   C      -14.41361        -2.83362         0.23740
   C      -14.48501        -4.17405         0.58256
   C      -13.29929        -4.89218         0.81457
   C      -13.24271        -6.25045         1.17379
   C      -12.00273        -6.83648         1.37815
   C      -10.79843        -6.12897         1.23934
   C      -14.51071        -6.97691         1.31159
   N      -15.66774        -6.24165         1.05487
   C      -15.76379        -4.89511         0.72086
   C      -16.91960        -6.98277         1.16588
   C      -17.18065        -7.87935        -0.05129
   C      -18.50866        -8.60446         0.14608
   C      -17.20002        -7.06283        -1.34046
   C        4.69910        -0.86298         2.13133
   C        4.83328        -1.44901         3.37638
   C        4.46052        -2.76940         3.58855
   C        3.95220        -3.49061         2.51618
   C        3.81696        -2.90985         1.26957
   C        5.40920        -2.68782        -1.39571
   C        5.71811        -3.53210        -2.44416
   C        4.89991        -3.60555        -3.56465
   C        3.76596        -2.80663        -3.60543
   C        3.45293        -1.95762        -2.55901
   C       -0.64836         2.76584         1.81504
   C       -0.97751         3.62300         2.85008
   C       -2.11132         4.42043         2.78619
   C       -2.91239         4.33788         1.65387
   C       -2.58724         3.48595         0.61682
   C       -1.87799         1.65240        -2.87233
   C       -2.01809         2.23851        -4.11711
   C       -1.62567         3.55156        -4.33668
   C       -1.08978         4.26568        -3.27254
   C       -0.95137         3.68602        -2.02619
   O       17.44589         8.89875        -2.27415
   O       19.66462         4.94183        -2.34724
   O       12.94302         2.04444        -1.55326
   O      -10.12675        -1.40207         0.05118
   O      -14.58181        -8.14564         1.63141
   O      -16.84100        -4.35920         0.56198
   C        5.20860        -4.56216        -4.68000
   C        4.64693        -3.41342         4.93211
   C        4.57161        -5.92576        -4.40410
   C        6.05723        -3.99331         5.05745
   C       -2.44115         5.38466         3.88891
   C       -1.84188         6.76082         3.59199
   C       -1.82227         4.20149        -5.67585
   C       -3.18437         4.89579        -5.73730
   H        1.33598        -2.07594         0.03602
   H        1.50604         2.87201        -0.75569
   H        6.95300        -0.12565        -0.57149
   H       -4.11594         0.90476        -0.20669
   H       10.96945         2.03282        -1.28206
   H        8.87299         0.88679        -0.99596
   H       -8.14282        -1.31529         0.20434
   H       -6.05054        -0.15325        -0.03970
   H       11.12857         5.84066        -1.59481
   H       -8.26318        -5.05493         0.99321
   H       12.74190         7.45809        -1.79675
   H       14.85829         8.68074        -2.05119
   H       18.14483         2.83941        -2.10034
   H       15.97339         1.66527        -1.83094
   H       19.62696         8.62531        -2.23682
   H       20.51947         7.11770        -1.87963
   H       20.44020         6.47480        -4.24617
   H       19.00322         9.14053        -4.65308
   H       19.62752         8.12390        -5.95722
   H       18.31949         7.53938        -4.93252
   H       22.33599         7.84744        -3.41813
   H       21.98361         8.21900        -5.10578
   H       21.45922         9.32387        -3.83356
   H      -13.17174        -1.11243        -0.15755
   H      -15.33904        -2.30421         0.06399
   H      -11.97695        -7.88044         1.65489
   H       -9.86626        -6.64520         1.41299
   H      -16.86294        -7.59937         2.06601
   H      -17.72084        -6.24911         1.26749
   H      -16.37767        -8.62111        -0.10830
   H      -19.32563        -7.88843         0.20510
   H      -18.69952        -9.27595        -0.68727
   H      -18.49393        -9.19011         1.06201
   H      -16.22795        -6.61266        -1.53431
   H      -17.45128        -7.69978        -2.18538
   H      -17.93750        -6.26613        -1.27331
   H        4.98866         0.16866         1.99333
   H        5.22912        -0.86840         4.19765
   H        3.65378        -4.51953         2.65930
   H        3.42267        -3.49049         0.44811
   H        6.05490        -2.64681        -0.53019
   H        6.60966        -4.14107        -2.39437
   H        3.11847        -2.84379        -4.47004
   H        2.56914        -1.33953        -2.61951
   H        0.23482         2.14879         1.89321
   H       -0.34291         3.66751         3.72387
   H       -3.80346         4.94579         1.58602
   H       -3.21980         3.43791        -0.25798
   H       -2.18413         0.62635        -2.72891
   H       -2.43594         1.66346        -4.93137
   H       -0.77443         5.28855        -3.42239
   H       -0.54012         4.26231        -1.21001
   H        4.82271        -4.16888        -5.62260
   H        6.28944        -4.68295        -4.77666
   H        4.49087        -2.67479         5.72115
   H        3.91577        -4.21349         5.06353
   H        3.49253        -5.82621        -4.30950
   H        4.78731        -6.61820        -5.21441
   H        4.95882        -6.34356        -3.47741
   H        6.80091        -3.20702         4.94770
   H        6.19034        -4.46442         6.02857
   H        6.22999        -4.73765         4.28314
   H       -3.52463         5.47824         3.98698
   H       -2.04281         5.01518         4.83584
   H       -2.23657         7.15151         2.65674
   H       -2.08094         7.46059         4.38935
   H       -0.76002         6.69055         3.50357
   H       -1.03507         4.93813        -5.84885
   H       -1.76598         3.44903        -6.46498
   H       -3.25548         5.65785        -4.96436
   H       -3.32780         5.36875        -6.70599
   H       -3.98359         4.17470        -5.58085
*
