# ORCA input file
# SCF done       -252.827708923323          0.000415612651
! wb97x-d3 def2-SVP def2/J RIJCOSX Grid4 TightSCF
%maxcore 5000
%tddft
    Mode sTDA
    Ethresh 5.0
    maxcore 5000
end

%pal
  nprocs 6
  end
* xyz 0 1
   C        3.53758         0.41316         0.33257
   C        3.65724        -0.89350         0.86944
   C        2.54017        -1.67673         1.03867
   C        1.31568        -1.15159         0.62491
   C        1.20200         0.14830         0.07739
   C        2.31382         0.94433        -0.06638
   C        0.00892        -1.72384         0.63731
   C       -0.92011        -0.81343         0.11803
   C       -0.23755         0.46739        -0.27527
   C        4.84466         0.98987         0.33392
   C        5.76765         0.10202         0.86232
   C        5.10382        -1.20604         1.20910
   S       -0.67813        -3.21977         1.08501
   C       -2.26365        -2.64082         0.58167
   C       -2.19532        -1.32269         0.09335
   S        5.55301         2.47579        -0.15208
   C        7.11533         1.89203         0.35606
   C        7.06345         0.61328         0.87560
   C       -0.76485         1.66221         0.54145
   C       -0.39958         0.75605        -1.77916
   C        0.10420        -0.38095        -2.65988
   C       -0.63241         1.45897         2.04584
   C        5.70507        -2.28098         0.27317
   C        5.28060        -1.57667         2.68913
   C        5.05961        -3.65865         0.33499
   C        4.82579        -0.46323         3.62567
   C       -3.46513        -3.34815         0.62677
   C       -3.73623        -4.64169         1.01671
   C       -2.75267        -5.62125         1.47735
   C       -3.50353        -6.87597         1.70229
   C       -4.86158        -6.66193         1.41556
   C       -5.03999        -5.26848         0.99930
   C       -3.02216        -8.10046         2.11869
   C       -3.93222        -9.13750         2.24797
   C       -5.28254        -8.93612         1.96528
   C       -5.76533        -7.70388         1.54840
   O       -1.55676        -5.46548         1.64676
   C       -6.24366        -4.69670         0.67285
   C       -6.44509        -3.35567         0.28538
   C       -7.47547        -5.38427         0.68761
   N       -8.50973        -5.88230         0.67567
   N       -6.70175        -2.28191        -0.03318
   C       13.23880         8.33267        -2.61617
   C       14.61099         8.04572        -2.41515
   C       15.56661         8.91791        -2.87981
   C       15.13036        10.03140        -3.59704
   C       13.75927        10.29075        -3.83916
   C       12.80081         9.45224        -3.31879
   C       15.86685        11.10467        -4.17784
   C       15.00544        12.03106        -4.76430
   C       13.57893        11.56083        -4.64904
   C       12.50052         7.29440        -1.97329
   C       13.34749         6.37626        -1.37941
   C       14.78674         6.76593        -1.61069
   S       17.50821        11.54072        -4.33586
   C       17.05147        13.01883        -5.17545
   C       15.66564        13.10702        -5.32323
   S       10.84529         6.87729        -1.80363
   C       11.29097         5.42003        -0.94027
   C       12.66050         5.30680        -0.80380
   C       13.07479        11.27157        -6.08329
   C       12.68944        12.58435        -3.92685
   C       13.22877        12.96130        -2.55198
   C       11.71131        10.60153        -6.18444
   C       15.52545         7.10428        -0.30147
   C       15.44886         5.63895        -2.43199
   C       15.69408         5.93883         0.66418
   C       16.90385         5.86201        -2.82164
   C       10.27294         4.49917        -0.51254
   C       18.06944        13.85408        -5.65623
   C       18.00049        15.13089        -6.15213
   C       19.09062        15.61304        -7.03259
   C       18.56966        16.85697        -7.64893
   C       17.31307        17.15896        -7.09639
   C       17.00519        16.16781        -6.06266
   C       19.14637        17.64514        -8.62432
   C       18.43585        18.75286        -9.06004
   C       17.18308        19.05158        -8.52508
   C       16.60777        18.26653        -7.53632
   O       20.15791        15.08093        -7.23517
   C       16.09905        16.35146        -5.04725
   C       16.03821        15.52924        -3.90664
   C       15.18823        17.42414        -4.98440
   N       14.40444        18.25893        -4.90240
   N       15.98220        14.90939        -2.94161
   F       -3.50995       -10.34467         2.64660
   F       -6.13970        -9.95590         2.09635
   F       16.51355        20.11907        -8.97588
   F       18.95627        19.54303       -10.00767
   C       10.56666         3.30834         0.16819
   C        9.55273         2.43733         0.49372
   C        8.23743         2.75892         0.13161
   N        7.94926         3.91174        -0.48334
   C        8.91659         4.73772        -0.78505
   H        2.58015        -2.65923         1.48173
   H        2.25934         1.94483        -0.46744
   H       -3.07086        -0.80604        -0.25864
   H        7.92724         0.08651         1.23893
   H       -0.21103         2.55552         0.24674
   H       -1.81506         1.81825         0.28694
   H       -1.45657         0.93533        -1.98577
   H        0.14908         1.66896        -2.01815
   H       -0.44618        -1.29766        -2.46059
   H       -0.02578        -0.12507        -3.70857
   H        1.16046        -0.56819        -2.47944
   H        0.40939         1.31715         2.32487
   H       -1.01449         2.32920         2.57382
   H       -1.19664         0.58730         2.36953
   H        5.63684        -1.90767        -0.75202
   H        6.76541        -2.37209         0.52053
   H        4.70423        -2.47734         2.90218
   H        6.33467        -1.79761         2.87055
   H        4.02928        -3.62179        -0.00674
   H        5.60550        -4.33826        -0.31596
   H        5.08530        -4.06570         1.34206
   H        5.40694         0.44144         3.46209
   H        3.77603        -0.23012         3.46138
   H        4.95212        -0.77032         4.66115
   H       -4.30968        -2.76616         0.27789
   H       -1.97662        -8.25077         2.33529
   H       -6.81799        -7.60287         1.34214
   H       16.62064         8.77825        -2.69848
   H       11.74441         9.64326        -3.42356
   H       15.18964        13.90771        -5.86031
   H       13.13000         4.46993        -0.32032
   H       13.04614        12.22376        -6.61814
   H       13.81412        10.63601        -6.57841
   H       12.61420        13.48044        -4.54664
   H       11.68847        12.16580        -3.81547
   H       14.20475        13.43498        -2.63044
   H       12.55151        13.66073        -2.06797
   H       13.32185        12.07980        -1.92118
   H       10.94138        11.19125        -5.69474
   H       11.44028        10.49945        -7.23301
   H       11.73247         9.60870        -5.74396
   H       16.50601         7.50945        -0.55431
   H       14.96422         7.89926         0.19683
   H       15.36990         4.71550        -1.85550
   H       14.85693         5.50470        -3.34158
   H       16.25984         5.12797         0.21323
   H       16.23313         6.27616         1.54679
   H       14.72820         5.55919         0.98556
   H       17.52908         6.02805        -1.94867
   H       17.27503         4.97934        -3.33837
   H       17.00234         6.70922        -3.49402
   H       19.05463        13.40275        -5.73071
   H       20.11527        17.41337        -9.03683
   H       15.63700        18.53633        -7.15337
   H       11.58517         3.06822         0.43325
   H        9.76676         1.51772         1.01440
   H        8.61317         5.64889        -1.28613
*
