# ORCA input file
# SCF done       -322.744279192554          0.000476451566
! wb97x-d3 def2-SVP def2/J RIJCOSX Grid4 TightSCF
%maxcore 5000
%tddft
    Mode sTDA
    Ethresh 5.0
    maxcore 5000
end

%pal
  nprocs 6
  end
* xyz 0 1
   C        0.97562         0.84104        -0.12687
   C        1.19037        -0.48284         0.32918
   C        0.16261        -1.38348         0.57928
   C       -1.14519        -0.92603         0.32484
   C       -1.36093         0.39759        -0.12860
   C       -0.33354         1.30538        -0.36554
   C       -2.35329        -1.66142         0.40468
   C       -3.45542        -0.94620         0.04282
   S       -3.05534         0.69658        -0.41560
   C        2.19250         1.55433        -0.24988
   C        3.29477         0.82309         0.07791
   S        2.88625        -0.80426         0.57579
   C       -0.61362         2.64411        -0.84276
   C        0.40704        -2.72310         1.07404
   C       -1.64818         3.46344        -0.48515
   C       -1.64296         4.69934        -1.16076
   C       -0.62099         4.82777        -2.05000
   S        0.37147         3.40848        -2.06013
   C       -0.26884        -3.40433         2.04660
   C        0.24522        -4.69505         2.28248
   C        1.30400        -5.00983         1.48803
   S        1.70044        -3.69498         0.43095
   C       -0.26835         5.99551        -2.90504
   C        1.00297         6.68417        -2.40371
   C        2.11180        -6.26135         1.46330
   C        3.53735        -6.01348         1.95916
   C       -7.11158        -1.42536        -0.32847
   C       -6.91010        -2.70306         0.24915
   C       -7.94340        -3.58690         0.53424
   C       -9.24157        -3.16594         0.18240
   C       -9.44276        -1.89062        -0.39910
   C       -8.41025        -1.00063        -0.67452
   C      -10.44794        -3.89954         0.28039
   C      -11.54080        -3.22567        -0.18218
   S      -11.12625        -1.62725        -0.77202
   C       -5.89900        -0.70188        -0.43433
   C       -4.80948        -1.38764         0.01360
   S       -5.22675        -2.98075         0.60619
   C       -8.67019         0.27781        -1.30418
   C       -7.71596        -4.86354         1.17932
   C       -9.71863         1.12775        -1.08765
   C       -9.68820         2.27281        -1.90758
   C       -8.63294         2.29808        -2.76642
   S       -7.63611         0.89647        -2.56298
   C       -8.43531        -5.43866         2.18941
   C       -7.91846        -6.68230         2.60280
   C       -6.81397        -7.06780         1.90734
   S       -6.37821        -5.87979         0.72337
   C       -8.25593         3.35113        -3.75033
   C       -7.00980         4.11446        -3.29655
   C       -5.98581        -8.29382         2.07999
   C       -4.60783        -7.95508         2.65161
   C        9.09421         2.96497        -0.42562
   C        9.31336         1.67276         0.11293
   C        8.29075         0.77650         0.39631
   C        6.97821         1.23049         0.16242
   C        6.75720         2.52667        -0.36277
   C        7.78198         3.41175        -0.68174
   C        5.76409         0.53566         0.38575
   C        4.65573         1.23943         0.02075
   S        5.05628         2.82704        -0.60182
   C       10.31011         3.65743        -0.63588
   C       11.41984         2.93343        -0.30915
   S       11.01414         1.34486         0.30720
   C        7.49341         4.70463        -1.26790
   C        8.54678        -0.56454         0.88293
   C        6.46448         5.55310        -0.96705
   C        6.44327         6.71274        -1.76609
   C        7.43928         6.75292        -2.69238
   S        8.44372         5.34610        -2.58082
   C        7.96931        -1.73602         0.48249
   C        8.46445        -2.86361         1.16771
   C        9.40960        -2.56042         2.09815
   S        9.72134        -0.85592         2.13484
   C        7.74802         7.82203        -3.68260
   C        9.04322         8.55426        -3.32656
   C       10.17124        -3.48167         2.98715
   C       11.63785        -3.57433         2.56194
   C      -12.89063        -3.67161        -0.21013
   S      -13.33321        -5.22345         0.42639
   C      -15.01434        -4.94864         0.03196
   C      -15.19609        -3.70769        -0.56579
   C      -13.99188        -3.00361        -0.69313
   C      -16.53062        -3.20145        -1.01320
   C      -16.49000        -1.82310        -1.66050
   C      -15.95293        -5.96182         0.35355
   C      -15.66458        -7.18265         0.94844
   C      -16.77461        -7.98486         1.16201
   C      -17.96209        -7.40902         0.73858
   S      -17.65522        -5.82663         0.05656
   C      -19.29528        -7.87123         0.77911
   C      -19.75582        -9.05843         1.26859
   C       12.78016         3.32688        -0.43530
   S       13.20686         4.86087        -1.12258
   C       14.91033         4.50996        -0.94349
   C       15.11101         3.26093        -0.36847
   C       13.90240         2.60985        -0.09073
   C       16.46734         2.69449        -0.09183
   C       16.44767         1.32062         0.56595
   C       15.84588         5.47494        -1.39536
   C       15.53953         6.70100        -1.97143
   C       16.64915         7.44227        -2.34473
   C       17.85260         6.81183        -2.06794
   S       17.56390         5.25876        -1.31794
   C       19.18383         7.21126        -2.30179
   C      -21.19733        -9.39758         1.25065
   C      -18.92625       -10.05108         1.82412
   N      -18.25796       -10.86692         2.27795
   O      -21.65587       -10.43595         1.65847
   O      -21.94468        -8.40367         0.73812
   C      -23.35026        -8.63913         0.66796
   C      -23.72060        -9.46022        -0.55872
   C       19.62965         8.35668        -2.89347
   C       18.80770         9.38477        -3.38121
   C       21.09251         8.53807        -3.04368
   N       18.14697        10.23549        -3.78093
   O       21.91378         7.74658        -2.64593
   O       21.37992         9.67343        -3.68731
   C       22.75923         9.97305        -3.89155
   C       23.36911        10.64224        -2.66825
   H       -2.40649        -2.69668         0.68893
   H        2.26475         2.57990        -0.56197
   H       -2.37025         3.20672         0.26866
   H       -2.37661         5.46771        -0.99167
   H       -1.08247        -2.97851         2.60632
   H       -0.16051        -5.36709         3.01812
   H       -1.10063         6.70246        -2.89392
   H       -0.11270         5.66538        -3.93530
   H        0.86763         7.02902        -1.38091
   H        1.24128         7.53942        -3.03111
   H        1.84107         5.99097        -2.42686
   H        2.15206        -6.65199         0.44303
   H        1.62365        -7.00652         2.09488
   H        4.03085        -5.27731         1.32873
   H        4.11166        -6.93623         1.93440
   H        3.52322        -5.63863         2.98005
   H      -10.50784        -4.90557         0.65445
   H       -5.82305         0.29944        -0.81688
   H      -10.46964         0.95880        -0.33718
   H      -10.42899         3.05147        -1.86223
   H       -9.28165        -4.96416         2.65346
   H       -8.35385        -7.27042         3.39136
   H       -9.09336         4.04328        -3.86118
   H       -8.05919         2.89306        -4.72308
   H       -7.18620         4.58767        -2.33314
   H       -6.75424         4.88364        -4.02097
   H       -6.16611         3.43487        -3.19833
   H       -5.85940        -8.79150         1.11512
   H       -6.50761        -8.97829         2.75196
   H       -4.07802        -7.28259         1.98066
   H       -4.01832        -8.85986         2.77659
   H       -4.70927        -7.46837         3.61900
   H        5.70659        -0.44720         0.81709
   H       10.37643         4.66224        -1.01141
   H        5.76475         5.37280        -0.17129
   H        5.70808         7.49053        -1.65806
   H        7.24364        -1.79435        -0.30904
   H        8.12695        -3.86684         0.97555
   H        6.91667         8.52984        -3.70271
   H        7.84818         7.38368        -4.67902
   H        8.96427         9.00473        -2.33962
   H        9.24508         9.33825        -4.05190
   H        9.87987         7.85911        -3.32354
   H        9.71047        -4.47083         2.94551
   H       10.12053        -3.12343         4.01852
   H       11.71292        -3.94032         1.54048
   H       12.17899        -4.25311         3.21626
   H       12.10536        -2.59354         2.61225
   H      -13.90522        -2.02417        -1.12632
   H      -17.20256        -3.17449        -0.14884
   H      -16.95813        -3.91970        -1.72065
   H      -16.11472        -1.07826        -0.96298
   H      -17.49358        -1.53276        -1.96158
   H      -15.85710        -1.82907        -2.54461
   H      -14.66092        -7.46381         1.21428
   H      -16.72819        -8.95882         1.61218
   H      -20.03891        -7.19626         0.37553
   H       13.82762         1.63301         0.35059
   H       17.01485         3.39342         0.54908
   H       17.02064         2.63472        -1.03504
   H       15.93456         1.35724         1.52389
   H       17.46754         0.98537         0.73784
   H       15.95272         0.59235        -0.07187
   H       14.52395         7.02714        -2.11047
   H       16.59402         8.41082        -2.80623
   H       19.96007         6.52436        -1.98275
   H      -23.79908        -7.64419         0.62842
   H      -23.66879        -9.15737         1.57850
   H      -23.36275        -8.97203        -1.46235
   H      -24.80041        -9.56382        -0.61361
   H      -23.27528       -10.44968        -0.48997
   H       22.77661        10.63988        -4.75582
   H       23.29363         9.04528        -4.12257
   H       22.80260        11.53304        -2.40792
   H       24.39678        10.92228        -2.88091
   H       23.35804         9.95612        -1.82481
*
