# ORCA input file
# SCF done       -440.496798815732          0.000885780165
! wb97x-d3 def2-SVP def2/J RIJCOSX Grid4 TightSCF
%maxcore 5000
%tddft
    Mode sTDA
    Ethresh 5.0
    maxcore 5000
end

%pal
  nprocs 6
  end
* xyz 0 1
   C        4.13515        15.57412         3.90670
   C        4.69696        16.64530         4.62591
   C        6.00880        16.54874         5.14224
   C        6.81473        15.42100         4.98653
   C        6.23228        14.33117         4.30769
   C        4.91609        14.42922         3.79450
   C        4.09763        17.90103         4.94011
   C        4.92099        18.72190         5.62160
   S        6.47128        18.02760         5.94436
   C        6.79925        13.05985         4.04343
   C        5.98388        12.22847         3.33603
   S        4.44081        12.96786         2.96991
   C        2.82816        15.68372         3.29189
   C        8.17221        15.39257         5.48246
   C        2.31466        16.73809         2.59114
   C        1.01152        16.52167         2.10475
   C        0.52538        15.29177         2.44321
   S        1.67477        14.37459         3.36412
   C        8.67684        15.95714         6.62366
   C       10.05583        15.76055         6.79732
   C       10.62430        15.05303         5.77472
   S        9.44990        14.62105         4.57403
   S       -1.01616        14.54860         2.09542
   C       -1.83406        15.85598         1.10335
   S       12.30816        14.61943         5.64723
   C       12.26751        13.48658         4.20591
   C        6.28207        10.91109         2.88308
   S        7.87946        10.24498         3.07062
   C        7.42693         8.76523         2.27429
   C        6.08655         8.80271         1.90263
   C        5.46198        10.02204         2.24515
   C        8.45311         7.80171         2.04812
   C        8.51710         6.76546         1.14207
   C        9.74418         6.10358         1.13547
   C       10.65151         6.61278         2.03659
   S        9.95439         7.93612         2.92481
   C       11.98046         6.17703         2.32311
   S       12.58222         6.30985         3.94883
   C       14.11873         5.26498         2.17608
   C       12.93026         5.59783         1.49267
   C        5.30481         7.70701         1.30442
   O        4.12974         8.16269         0.84419
   O        5.63544         6.54702         1.23814
   C       12.80622         5.43157         0.03408
   O       13.79706         4.65972        -0.44038
   O       11.96337         5.93547        -0.66794
   C       13.80773         4.42108        -1.84631
   C        3.23373         7.19870         0.29569
   C       14.10079         5.57778         3.50803
   C       -3.20892        15.37422         0.68305
   C       13.64421        12.89673         3.97724
   C        2.42326         6.51107         1.38551
   C       12.86384         3.28936        -2.22788
   C       16.50372         5.06064         7.87782
   C       16.26086         5.10787         6.48975
   C       17.27797         4.73564         5.57836
   C       18.55562         4.34526         5.96760
   C       18.81080         4.34461         7.35405
   C       17.78655         4.69126         8.26881
   C       15.06548         5.47989         5.82412
   C       15.12687         5.34355         4.46949
   S       16.69804         4.78147         3.93451
   C       20.01588         4.01380         8.01806
   C       19.92053         4.04737         9.37814
   S       18.32837         4.53039         9.91876
   C       15.45544         5.34955         8.83246
   C       19.54148         3.93620         4.99046
   C       14.14429         4.96448         8.79125
   C       13.38403         5.40608         9.88932
   C       14.12037         6.14219        10.77340
   S       15.77281         6.29282        10.26804
   C       19.76403         4.46199         3.74811
   C       20.76687         3.80117         3.01582
   C       21.30623         2.74788         3.69706
   S       20.58966         2.56372         5.26508
   S       13.65429         6.91176        12.26846
   C       11.85266         6.57177        12.30620
   S       22.56100         1.62318         3.24059
   C       22.91269         2.15041         1.52041
   C       20.93931         3.71350        10.31665
   S       22.56954         3.41596         9.78055
   C       23.09963         3.05324        11.39982
   C       22.04541         3.16964        12.29090
   C       20.83448         3.53761        11.67061
   C       24.44423         2.61108        11.57520
   C       25.49593         2.86866        10.72026
   C       26.66966         2.21834        11.08488
   C       26.53620         1.41901        12.20601
   S       24.92643         1.53079        12.84623
   C       27.56347         0.58444        12.73160
   S       29.17386         0.82021        12.09488
   C       28.79544        -1.15340        13.68485
   C       27.54503        -0.50657        13.58796
   C       22.10515         2.99925        13.75539
   O       23.31000         3.31556        14.24630
   O       21.17078         2.64294        14.42931
   C       26.41897        -1.06047        14.36336
   O       25.56657        -0.11983        14.79353
   O       26.32350        -2.23088        14.63845
   C       24.47577        -0.56000        15.60626
   C       23.49110         3.20979        15.65691
   C       29.79038        -0.56034        12.95727
   C       11.24863         7.22693        13.53295
   C       23.95646         1.22775         0.92189
   C       23.17709         4.52844        16.34843
   C       23.24674        -0.89502        14.77492
   C       34.66127        -0.44409        11.81124
   C       33.41956        -0.90902        12.29092
   C       33.31923        -2.18790        12.88906
   C       34.39334        -3.06606        13.00543
   C       35.61722        -2.62959        12.45702
   C       35.72270        -1.33919        11.88225
   C       32.16956        -0.24453        12.25124
   C       31.15782        -0.94266        12.84115
   S       31.70052        -2.48428        13.47021
   C       36.83979        -3.33963        12.37596
   C       37.85125        -2.62783        11.80218
   S       37.34202        -1.02425        11.31981
   C       34.80805         0.90517        11.31122
   C       34.24810        -4.34738        13.66134
   C       34.25988         2.05008        11.81984
   C       34.61063         3.21523        11.11431
   C       35.43006         2.95645        10.05289
   S       35.78996         1.26497         9.91276
   C       33.17901        -5.19917        13.62211
   C       33.33485        -6.35288        14.41097
   C       34.52924        -6.37940        15.07257
   S       35.48872        -4.97915        14.71998
   S       36.13372         4.03971         8.87870
   C       35.46494         5.65538         9.43136
   S       35.19727        -7.56956        16.16038
   C       33.89968        -8.86407        16.12319
   C       39.18939        -3.05455        11.56609
   S       39.70355        -4.66666        11.96690
   C       41.31674        -4.37157        11.38018
   C       41.43137        -3.06568        10.90955
   C       40.22373        -2.34206        11.02469
   C       42.24940        -5.44387        11.49696
   C       43.50171        -5.61793        10.94945
   C       44.09463        -6.83457        11.28990
   C       43.31479        -7.61962        12.10807
   S       41.80407        -6.83795        12.45029
   C       43.58285        -8.93241        12.60949
   S       42.27153       -10.05445        12.81459
   C       44.64260       -10.90084        13.26472
   C       44.78989        -9.53752        12.90322
   C       42.62155        -2.40254        10.34901
   O       42.49804        -1.07055        10.44606
   O       43.58589        -2.93698         9.85394
   C       46.11782        -8.89673        12.95274
   O       46.04033        -7.60127        13.28298
   O       47.15317        -9.48319        12.75242
   C       47.26909        -6.88172        13.37916
   C       43.54873        -0.28088         9.89297
   C       43.35179       -11.31084        13.27256
   C       35.97201         6.74699         8.50940
   C       34.34146       -10.03459        16.97968
   C       43.36645        -0.08351         8.39461
   C       47.91178        -7.05891        14.74723
   H        3.08617        18.15342         4.68066
   H        4.71871        19.71164         5.98160
   H        7.77336        12.74781         4.37206
   H        2.87136        17.63557         2.38787
   H        0.47372        17.25094         1.52799
   H        8.06517        16.46293         7.34820
   H       10.61588        16.11631         7.64208
   H       -1.20315        16.05212         0.23645
   H       -1.90238        16.74780         1.72627
   H       11.93499        14.06698         3.34461
   H       11.53502        12.70909         4.42557
   H        4.42891        10.22926         2.03283
   H        7.69631         6.49359         0.50743
   H        9.96432         5.27393         0.49148
   H       14.96477         4.81167         1.69253
   H       14.84322         4.16540        -2.08080
   H       13.52240         5.34218        -2.36548
   H        3.80875         6.45894        -0.27141
   H        2.58773         7.76563        -0.37798
   H       -3.12856        14.47002         0.08444
   H       -3.70415        16.14205         0.09272
   H       -3.81908        15.15627         1.55631
   H       14.36830        13.68345         3.77870
   H       13.61625        12.22199         3.12457
   H       13.96987        12.34016         4.85282
   H        3.08432         5.94515         2.03751
   H        1.70760         5.83069         0.93303
   H        1.88804         7.24919         1.97826
   H       13.11111         2.38923        -1.66990
   H       12.95085         3.08487        -3.29112
   H       11.83755         3.57237        -2.00732
   H       14.18936         5.84716         6.32689
   H       20.93035         3.75305         7.51755
   H       13.73879         4.33719         8.01764
   H       12.34168         5.17659        10.00910
   H       19.25120         5.32947         3.37424
   H       21.06669         4.10431         2.03015
   H       11.72239         5.48994        12.33349
   H       11.42415         6.97801        11.39013
   H       23.27097         3.17922         1.55799
   H       21.97602         2.10024         0.96546
   H       19.91763         3.66761        12.21731
   H       25.40504         3.51419         9.86466
   H       27.59310         2.29844        10.53889
   H       28.94522        -2.02991        14.28967
   H       24.27519         0.26692        16.29056
   H       24.80080        -1.44113        16.17000
   H       24.53916         2.93080        15.78943
   H       22.83770         2.41765        16.03769
   H       11.70247         6.83070        14.43814
   H       10.17847         7.03429        13.56466
   H       11.41013         8.30197        13.50836
   H       24.87564         1.26608         1.50170
   H       24.17422         1.53087        -0.09992
   H       23.59708         0.20141         0.91348
   H       23.78924         5.32560        15.93370
   H       23.37952         4.44060        17.41200
   H       22.12844         4.78015        16.20898
   H       22.89697        -0.01932        14.23444
   H       22.45398        -1.24385        15.43035
   H       23.48318        -1.67992        14.06072
   H       32.01305         0.70909        11.78042
   H       36.97614        -4.35028        12.71480
   H       33.65532         2.06785        12.70892
   H       34.26873         4.19389        11.39514
   H       32.31004        -5.02913        13.01293
   H       32.58674        -7.12048        14.47691
   H       35.80227         5.81673        10.45518
   H       34.37757         5.58774         9.40159
   H       33.76741        -9.16372        15.08369
   H       32.98024        -8.42053        16.50508
   H       40.12336        -1.32012        10.70675
   H       43.95937        -4.88813        10.30937
   H       45.05575        -7.14677        10.92477
   H       45.48280       -11.52048        13.51974
   H       46.99818        -5.83874        13.20077
   H       47.94893        -7.23236        12.59520
   H       44.50736        -0.76968        10.09668
   H       43.49515         0.67106        10.42534
   H       42.96085       -12.27762        13.51900
   H       37.05839         6.78764         8.52955
   H       35.57966         7.71027         8.82805
   H       35.65296         6.55998         7.48684
   H       35.27193       -10.45205        16.60227
   H       33.57857       -10.80991        16.96604
   H       34.49830        -9.71638        18.00761
   H       43.43162        -1.04115         7.88383
   H       44.14593         0.57130         8.01583
   H       42.39580         0.36162         8.18920
   H       47.21832        -6.75893        15.52923
   H       48.80760        -6.44791        14.81104
   H       48.18439        -8.10088        14.89617
*
