# ORCA input file
# SCF done       -437.982521490423          0.000363666397
! wb97x-d3 def2-SVP def2/J RIJCOSX Grid4 TightSCF
%maxcore 5000
%tddft
    Mode sTDA
    Ethresh 5.0
    maxcore 5000
end

%pal
  nprocs 6
  end
* xyz 0 1
   C       -0.38306        -4.84117         7.11132
   C       -1.67380        -5.02996         6.63188
   C       -1.67135        -5.74310         5.43612
   C       -0.41536        -6.09480         4.96427
   S        0.81676        -5.52410         6.04941
   C       -0.18910        -6.81729         3.77045
   S       -1.59472        -7.38814         2.90145
   C       -0.63061        -8.10737         1.63220
   C        0.72103        -7.89349         1.88053
   C        0.97122        -7.18038         3.09416
   C        1.78902        -8.32816         1.00876
   C        3.15706        -8.00844         1.45995
   C        3.40300        -7.32513         2.65606
   C        2.31225        -6.88919         3.54928
   C       -1.31879        -8.79002         0.60325
   C       -2.69553        -8.95358         0.57241
   C       -3.17579        -9.68413        -0.51114
   S       -0.58780        -9.55958        -0.77642
   O        1.59897        -8.91651        -0.05262
   O        2.56128        -6.32612         4.61244
   C        0.08599        -4.18682         8.28744
   C       -2.14119       -10.09057        -1.34305
   C       -2.94163        -4.59150         7.29472
   C       -3.37048        -5.58764         8.37336
   C        4.23080        -8.40045         0.66226
   C        5.52834        -8.11891         1.04139
   C        5.77257        -7.43888         2.22735
   C        4.71753        -7.04693         3.02698
   C       -4.63452        -9.95617        -0.70800
   C       -5.08517       -11.15886         0.12427
   S       -0.94901        -3.31586         9.40405
   C        0.41090        -2.90145        10.40899
   C        1.61745        -3.42083         9.88029
   C        1.39261        -4.14705         8.68820
   C        0.33905        -2.19050        11.60064
   C        1.55589        -1.96852        12.27018
   C        2.76039        -2.49371        11.74916
   C        2.83360        -3.22070        10.56348
   C        1.78367        -1.19366        13.44588
   C        3.08280        -1.14667        13.80188
   S        4.12017        -2.04146        12.74586
   C       -0.91806        -1.71205        12.14217
   C       -1.35643        -1.77431        13.43421
   C       -2.64247        -1.22580        13.61372
   C       -3.18581        -0.73478        12.46728
   S       -2.11185        -0.95746        11.12491
   C       -4.52425        -0.11315        12.26281
   C       -5.45112        -1.04172        11.47593
   C        4.09861        -3.72273        10.06894
   C        5.13130        -4.25193        10.79286
   C        6.23835        -4.61627        10.00271
   C        6.06681        -4.35891         8.67714
   S        4.51319        -3.65690         8.37786
   C        7.01981        -4.58064         7.55368
   C        7.58516        -3.25748         7.03371
   C        1.07136       -16.20750        -7.60442
   C        1.55332       -16.42482        -8.89340
   C        2.46056       -17.47599        -8.91760
   C        2.71038       -18.05957        -7.68139
   S        1.77875       -17.28345        -6.43811
   C        3.60144       -19.14325        -7.49497
   S        4.27589       -19.88162        -8.92861
   C        5.22510       -21.02229        -8.00440
   C        5.03209       -20.81152        -6.64247
   C        4.09844       -19.76822        -6.35754
   C        5.70916       -21.54309        -5.59508
   C        5.35830       -21.15841        -4.21371
   C        4.42155       -20.15637        -3.93466
   C        3.71847       -19.42304        -5.00440
   C        5.98587       -21.96695        -8.72893
   C        5.96873       -22.07716       -10.11101
   C        6.76012       -23.09728       -10.63124
   S        7.04145       -23.16753        -8.04182
   O        6.54148       -22.42018        -5.81082
   O        2.85976       -18.58729        -4.73857
   C        0.12882       -15.24856        -7.16861
   C        7.41958       -23.79024        -9.62350
   C        1.13487       -15.67507       -10.11783
   C       -0.22469       -16.16379       -10.62125
   C        5.98583       -21.81987        -3.15954
   C        5.69224       -21.49456        -1.84992
   C        4.76255       -20.50087        -1.57352
   C        4.13229       -19.83880        -2.60868
   C        6.83088       -23.36980       -12.10073
   C        5.73363       -24.34613       -12.52900
   S       -0.52565       -15.11218        -5.50408
   C       -2.59088       -13.19601        -6.31538
   C       -1.32450       -13.80564        -6.54209
   C       -0.58215       -14.23220        -7.72088
   C       -3.32331       -13.31468        -5.12202
   C       -2.82340       -12.32336        -4.22051
   C       -1.64961       -11.78504        -4.77054
   C       -1.45497       -12.22386        -6.13189
   C       -3.11234       -11.79530        -2.94618
   C       -2.20517       -10.84645        -2.55483
   S       -0.94608       -10.59146        -3.76328
   C       -4.29376       -14.32020        -4.88751
   C       -4.99335       -14.63070        -3.74565
   C       -5.83517       -15.74258        -3.90030
   C       -5.79338       -16.29131        -5.14972
   S       -4.69570       -15.42923        -6.17342
   C       -6.57075       -17.44804        -5.67490
   C       -7.64124       -16.99240        -6.66900
   C       -0.85697       -11.33264        -7.11542
   C        0.19956       -10.48906        -6.94938
   C        0.50767        -9.75605        -8.11618
   C       -0.30755       -10.03600        -9.16678
   S       -1.49887       -11.22183        -8.72767
   C       -0.26481        -9.49062       -10.55308
   C        0.06644       -10.58001       -11.57427
   C       14.46000       -28.63109       -13.05065
   C       15.49591       -27.83771       -13.52500
   C       16.11292       -28.42346       -14.62649
   C       15.57455       -29.64242       -15.01812
   S       14.25683       -30.09207       -13.97700
   C       16.03804       -30.39735       -16.12203
   S       17.38419       -29.74826       -17.02632
   C       17.39440       -31.08637       -18.15027
   C       16.39290       -31.99247       -17.82297
   C       15.62408       -31.60229       -16.68116
   C       16.12373       -33.21881       -18.54647
   C       14.98482       -34.01974       -18.05454
   C       14.22818       -33.63215       -16.94356
   C       14.51998       -32.39793       -16.19065
   C       18.36279       -31.04670       -19.18531
   C       19.25782       -30.00604       -19.36585
   C       20.11724       -30.17243       -20.45786
   S       18.60027       -32.27010       -20.40546
   O       16.78293       -33.59498       -19.50980
   O       13.84309       -32.08931       -15.21306
   C       13.55020       -28.41648       -11.99347
   C       19.86769       -31.35713       -21.09947
   C       15.88109       -26.50437       -12.96988
   C       15.12501       -25.38482       -13.68849
   C       14.66153       -35.19833       -18.72446
   C       13.60400       -35.98003       -18.30254
   C       12.85304       -35.59479       -17.19984
   C       13.16442       -34.43054       -16.52585
   C       21.19273       -29.20181       -20.83307
   C       22.42910       -29.39866       -19.95436
   S       13.18245       -26.95766       -11.01279
   C       11.13207       -28.33785        -9.40814
   C       11.97153       -28.28306       -10.54838
   C       12.61383       -29.22955       -11.44398
   C       10.93824       -27.27252        -8.50747
   C        9.90851       -26.44288        -9.04812
   C        9.65204       -26.86687       -10.36154
   C       10.31933       -28.10428       -10.65680
   C        9.16143       -25.30540        -8.69307
   C        8.32655       -24.88762        -9.69979
   S        8.45291       -25.91544       -11.12881
   C       11.71303       -27.05050        -7.34319
   C       12.72434       -27.84478        -6.85167
   C       13.31125       -27.33097        -5.68699
   C       12.76475       -26.14834        -5.27623
   S       11.49085       -25.64761        -6.33468
   C       13.10861       -25.33908        -4.07430
   C       12.00788       -25.42257        -3.01432
   C        9.73838       -29.06113       -11.58555
   C        9.14106       -28.79407       -12.78150
   C        8.73279       -29.95849       -13.46557
   C        9.01427       -31.10826       -12.79733
   S        9.77599       -30.77123       -11.27486
   C        8.82563       -32.51534       -13.24796
   C       10.15730       -33.12389       -13.69655
   H       -2.57194        -5.99929         4.90369
   H       -3.33671        -8.54027         1.33277
   H       -3.72555        -4.52168         6.53784
   H       -2.81266        -3.60444         7.74122
   H       -3.52457        -6.57248         7.93772
   H       -4.29783        -5.26197         8.83766
   H       -2.60812        -5.66653         9.14397
   H        4.01593        -8.92778        -0.25526
   H        6.35219        -8.42756         0.41524
   H        6.78681        -7.21701         2.52460
   H        4.88135        -6.51764         3.95393
   H       -4.84013       -10.13065        -1.76496
   H       -5.20176        -9.07738        -0.39318
   H       -4.49993       -12.04177        -0.12364
   H       -6.13622       -11.37298        -0.05594
   H       -4.94914       -10.95478         1.18370
   H        2.16611        -4.64634         8.13448
   H        1.00262        -0.67851        13.97405
   H        3.52067        -0.63493        14.63656
   H       -0.79140        -2.23621        14.22443
   H       -3.14568        -1.19707        14.56434
   H       -4.41374         0.82743        11.71711
   H       -4.96256         0.10698        13.23862
   H       -5.02259        -1.25984        10.50034
   H       -6.42280        -0.57505        11.33453
   H       -5.58857        -1.97940        12.00976
   H        5.08625        -4.41161        11.85503
   H        7.13142        -5.06023        10.40604
   H        6.50795        -5.09630         6.73717
   H        7.83450        -5.21777         7.90495
   H        6.78075        -2.62443         6.66610
   H        8.28522        -3.43805         6.22164
   H        8.10421        -2.72910         7.83036
   H        2.94931       -17.81315        -9.81619
   H        5.37886       -21.42031       -10.72802
   H        1.88361       -15.82702       -10.89772
   H        1.08703       -14.60779        -9.89707
   H       -0.16889       -17.21676       -10.88749
   H       -0.52718       -15.59926       -11.49992
   H       -0.98241       -16.04453        -9.85108
   H        6.70406       -22.58996        -3.39899
   H        6.18575       -22.01371        -1.04179
   H        4.53141       -20.24539        -0.55015
   H        3.40501       -19.06341        -2.41896
   H        7.80724       -23.77826       -12.36449
   H        6.70022       -22.42749       -12.63727
   H        5.84262       -25.29438       -12.00879
   H        5.79118       -24.53074       -13.59868
   H        4.75304       -23.93638       -12.29748
   H       -0.63121       -13.83339        -8.71413
   H       -3.93928       -12.10592        -2.33848
   H       -4.89509       -14.08434        -2.82634
   H       -6.45634       -16.13001        -3.11150
   H       -7.04194       -17.96592        -4.83674
   H       -5.89553       -18.14752        -6.17401
   H       -8.33659       -16.30770        -6.18868
   H       -8.19751       -17.84807        -7.04347
   H       -7.17844       -16.48119        -7.50994
   H        0.74227       -10.39960        -6.02539
   H        1.31299        -9.04484        -8.16925
   H        0.49000        -8.70242       -10.59358
   H       -1.23271        -9.04850       -10.80501
   H        1.03049       -11.03049       -11.34785
   H        0.10539       -10.16012       -12.57632
   H       -0.69361       -11.35796       -11.55239
   H       16.94313       -27.97361       -15.14450
   H       19.27689       -29.14378       -18.72143
   H       20.37607       -31.73522       -21.96551
   H       16.95554       -26.35929       -13.09937
   H       15.65121       -26.46371       -11.90402
   H       15.33139       -25.40964       -14.75636
   H       15.42666       -24.41731       -13.29576
   H       14.05445       -25.49895       -13.53795
   H       15.26028       -35.47819       -19.57846
   H       13.36244       -36.89053       -18.83030
   H       12.02627       -36.20522       -16.86842
   H       12.59670       -34.11196       -15.66411
   H       20.82026       -28.18266       -20.71020
   H       21.46375       -29.34495       -21.88040
   H       22.17733       -29.25193       -18.90662
   H       23.20555       -28.68846       -20.22812
   H       22.82111       -30.40594       -20.07491
   H       12.38793       -30.26056       -11.63334
   H        9.21189       -24.80769        -7.74180
   H       13.01746       -28.76402        -7.32618
   H       14.11733       -27.81516        -5.16395
   H       13.24641       -24.29370        -4.36245
   H       14.04945       -25.70721        -3.65943
   H       11.07016       -25.04643        -3.41682
   H       12.27692       -24.82935        -2.14392
   H       11.86125       -26.45401        -2.70160
   H        9.01244       -27.79753       -13.16540
   H        8.25460       -29.93977       -14.42891
   H        8.11702       -32.52661       -14.07899
   H        8.41158       -33.11583       -12.43438
   H       10.59725       -32.52881       -14.49385
   H       10.00498       -34.13898       -14.05611
   H       10.85846       -33.15010       -12.86553
*
