# ORCA input file
# SCF done       -278.979123561509          0.000418477587
! wb97x-d3 def2-SVP def2/J RIJCOSX Grid4 TightSCF
%maxcore 5000
%tddft
    Mode sTDA
    Ethresh 5.0
    maxcore 5000
end

%pal
  nprocs 6
  end
* xyz 0 1
   C       -2.02905         1.60700       -10.30031
   C       -2.40788         0.66034       -11.21596
   C       -2.15607        -0.65677       -10.76592
   C       -1.59843        -0.69346        -9.51704
   S       -1.37175         0.91913        -8.88559
   C       -3.02576         1.01899       -12.50558
   O       -3.35197        -0.06964       -13.21328
   O       -3.22888         2.15166       -12.86882
   C       -3.96640         0.14912       -14.48288
   C       -2.93077         0.41785       -15.56517
   C       -0.76930        -5.58139        -7.82093
   C       -0.72653        -6.44695        -8.89081
   C       -0.80363        -7.79043        -8.51256
   S       -0.92882        -6.45220        -6.32876
   C       -0.80072        -4.15677        -7.89828
   C       -0.56312        -3.17123        -6.95355
   C       -0.81830        -1.87163        -7.43743
   C       -1.24004        -1.83513        -8.73841
   S       -1.33205        -3.44283        -9.39839
   C       -0.05397        -3.33261        -5.57660
   O        0.62898        -4.47078        -5.41330
   O       -0.21408        -2.50877        -4.71131
   C        1.17009        -4.72684        -4.11669
   C        2.53334        -4.07281        -3.94874
   C       -1.29630       -11.60853        -5.74907
   C       -1.44323       -10.73650        -4.70120
   C       -1.31839        -9.39748        -5.08989
   C       -1.08162        -9.21173        -6.44087
   S       -0.99326       -10.75967        -7.23383
   C       -0.94277        -7.98797        -7.14915
  Cl       -0.73904        -9.07602        -9.64621
  Cl       -1.44829        -8.10702        -3.96787
   C       -1.34280       -13.03890        -5.69732
   C       -2.18315       -13.84644        -4.95289
   C       -1.85279       -15.21292        -5.04423
   C       -0.77807       -15.46465        -5.85557
   S       -0.15460       -13.98744        -6.53681
   C       -3.35648       -13.40557        -4.16836
   O       -3.87284       -12.26276        -4.63250
   O       -3.80147       -14.02373        -3.23403
   C       -5.01780       -11.74419        -3.95317
   C       -6.30464       -12.35805        -4.48418
   C        0.50032       -20.53633        -5.83456
   C        1.55172       -21.38613        -5.59747
   C        1.13641       -22.68293        -5.27737
   S       -1.02348       -21.36688        -5.66173
   C        0.49872       -19.13435        -6.10702
   C        1.40274       -18.32350        -6.78209
   C        1.01852       -16.96491        -6.77838
   C       -0.15202       -16.71984        -6.11329
   S       -0.82957       -18.19783        -5.49116
   C        2.60159       -18.78393        -7.50522
   O        3.15635       -17.77485        -8.19263
   O        3.03726       -19.90981        -7.51479
   C        4.33156       -18.07855        -8.94316
   C        5.57804       -18.03670        -8.07054
   C       -1.67945       -26.38337        -4.41621
   C       -2.73026       -25.56881        -4.77781
   C       -2.33212       -24.26684        -5.08940
   C       -0.96467       -24.05788        -5.00863
   S       -0.17562       -25.52072        -4.49060
   C       -0.23687       -22.86782        -5.27129
  Cl        2.24947       -23.93317        -4.91283
  Cl       -3.44511       -23.04116        -5.53611
   C       -1.77140       -27.77489        -4.11847
   C       -0.90084       -28.65009        -3.48683
   C       -1.36053       -29.98163        -3.48932
   C       -2.57330       -30.15122        -4.10289
   S       -3.17296       -28.63255        -4.70548
   C        0.37047       -28.33675        -2.80224
   O        0.43031       -27.06589        -2.39182
   O        1.23616       -29.15309        -2.60964
   C        1.61467       -26.65376        -1.70833
   C        1.50763       -26.92197        -0.21463
   C       -4.14894       -35.13073        -3.92369
   C       -5.12089       -36.07435        -4.15667
   C       -4.75947       -37.34913        -3.70785
   S       -2.77051       -35.85224        -3.12810
   C       -4.10859       -33.73430        -4.20558
   C       -4.92390       -32.89699        -4.96369
   C       -4.45568       -31.56570        -4.99048
   C       -3.30670       -31.35962        -4.27560
   S       -2.76641       -32.84252        -3.54556
   C       -6.14134       -33.25940        -5.71322
   O       -6.38943       -32.34847        -6.66449
   O       -6.85422       -34.21405        -5.51530
   C       -7.53658       -32.56879        -7.48451
   C       -7.23207       -33.53973        -8.61656
   C       -2.22591       -40.81854        -1.74952
   C       -1.25695       -39.90185        -1.49824
   C       -1.61248       -38.61718        -1.95514
   C       -2.85542       -38.55603        -2.55481
   S       -3.58577       -40.13793        -2.54351
   C       -3.51022       -37.42437        -3.11559
  Cl       -5.79772       -38.70277        -3.88111
  Cl       -0.58212       -37.25846        -1.77442
   H       -2.11588         2.67040       -10.40287
   H       -2.38613        -1.53504       -11.34057
   H       -4.65528         0.99649       -14.40124
   H       -4.52414        -0.76706       -14.68823
   H       -2.39574         1.33841       -15.34506
   H       -3.42712         0.52058       -16.52579
   H       -2.21860        -0.40228       -15.61749
   H       -0.63231        -6.12483        -9.91183
   H       -0.68836        -0.99573        -6.82728
   H        1.23990        -5.81475        -4.05168
   H        0.47197        -4.35119        -3.36178
   H        3.21177        -4.41156        -4.72814
   H        2.94586        -4.33497        -2.97886
   H        2.43602        -2.99158        -4.00919
   H       -1.61376       -11.04239        -3.68607
   H       -2.39812       -15.97884        -4.52251
   H       -4.98805       -10.66762        -4.13500
   H       -4.91599       -11.94693        -2.88190
   H       -6.38011       -12.20227        -5.55766
   H       -7.15720       -11.89478        -3.99609
   H       -6.31859       -13.42571        -4.27928
   H        2.58195       -21.09343        -5.65118
   H        1.59962       -16.19250        -7.24829
   H        4.37128       -17.31616        -9.72386
   H        4.21892       -19.07026        -9.39357
   H        5.65948       -17.07155        -7.57615
   H        6.45822       -18.19656        -8.68649
   H        5.53009       -18.81816        -7.31623
   H       -3.75351       -25.89658        -4.80445
   H       -0.80193       -30.78513        -3.04332
   H        1.70242       -25.58514        -1.91566
   H        2.47102       -27.18843        -2.13137
   H        0.63232       -26.42377         0.19533
   H        2.39637       -26.55013         0.28678
   H        1.42312       -27.99093        -0.03449
   H       -6.06328       -35.85513        -4.62127
   H       -4.95933       -30.78111        -5.52548
   H       -7.79910       -31.58220        -7.87198
   H       -8.35032       -32.95568        -6.86224
   H       -6.38876       -33.18128        -9.20214
   H       -8.10088       -33.63089        -9.26194
   H       -6.99014       -34.51921        -8.21130
   H       -2.22402       -41.86359        -1.51375
   H       -0.32399       -40.11344        -1.01027
*
