# ORCA input file
# SCF done       -354.046485175582          0.000901032113
! wb97x-d3 def2-SVP def2/J RIJCOSX Grid4 TightSCF
%maxcore 5000
%tddft
    Mode sTDA
    Ethresh 5.0
    maxcore 5000
end

%pal
  nprocs 6
  end
* xyz 0 1
   C        3.57742         7.56175        16.56804
   C        4.28761         6.77436        17.45158
   C        4.70813         5.46814        17.13477
   C        4.44637         4.85598        15.88787
   C        3.72738         5.65983        14.96725
   C        3.30475         6.97428        15.30437
   N        3.31094         5.41460        13.71921
   N        2.69577         6.51046        13.36249
   N        2.65345         7.47060        14.24835
   C        2.06347         6.64438        12.08187
   C        0.54662         6.58636        12.23047
   C        4.84977         3.54119        15.59130
   C        5.52075         2.73807        16.49006
   C        5.80926         3.32479        17.75431
   C        5.41523         4.65849        18.06046
   N        6.43590         2.83989        18.83358
   N        6.40416         3.82132        19.69705
   N        5.81930         4.92259        19.30794
   C        7.02249         3.70898        20.98668
   C        8.50575         4.05703        20.90209
   C        3.10615         8.88259        16.86583
   C        3.31634         9.63719        17.99715
   C        2.69329        10.89211        17.98122
   C        1.98334        11.10313        16.80807
   S        2.11281         9.73547        15.73027
   C        2.77204        11.89773        19.08872
   C        3.62734        11.46094        20.27135
   C        1.20268        12.21566        16.39026
   S        0.96589        13.64592        17.36027
   C       -0.04411        14.36984        16.14131
   C       -0.17311        13.53421        15.05695
   C        0.52244        12.33315        15.19620
   C       -0.61535        15.65922        16.33841
   C       -0.48457        16.49463        17.41856
   C       -1.19476        17.70041        17.27445
   C       -1.86062        17.78100        16.09294
   S       -1.63591        16.37932        15.12247
   C        5.88667         1.38469        16.19385
   C        6.45544         0.45830        17.03253
   C        6.64643        -0.80834        16.46009
   C        6.23165        -0.85806        15.14099
   S        5.59331         0.68628        14.62843
   C        7.28644        -1.92995        17.21645
   C        8.75870        -2.08360        16.83114
   C        5.46828       -12.47119         9.47644
   C        5.58213       -13.14890         8.27950
   C        5.26426       -14.51546         8.14825
   C        4.78387       -15.29906         9.22200
   C        4.68457       -14.61911        10.46185
   C        5.02959       -13.24610        10.58281
   N        4.30210       -15.04317        11.67216
   N        4.42172       -13.99024        12.43606
   N        4.84393       -12.89604        11.85917
   C        4.07810       -14.02060        13.82850
   C        2.78207       -13.25502        14.07378
   C        4.42591       -16.65158         9.07292
   C        4.53725       -17.33258         7.87931
   C        5.05475       -16.58633         6.78405
   C        5.39692       -15.20992         6.91801
   N        5.29435       -16.93228         5.51304
   N        5.73931       -15.83607         4.95595
   N        5.82664       -14.78372         5.72518
   C        6.15905       -15.80615         3.58452
   C        7.63293       -16.18380         3.46716
   C        5.73895       -11.07288         9.64544
   C        5.98589       -10.11713         8.68658
   C        6.16662        -8.82239         9.19221
   C        6.07135        -8.78923        10.57528
   S        5.73757       -10.37185        11.23057
   C        6.43411        -7.60579         8.35944
   C        6.67395        -7.89911         6.88375
   C        6.18454        -7.70135        11.48425
   S        6.15565        -6.02692        10.99604
   C        6.26816        -5.49059        12.65017
   C        6.34147        -6.56621        13.50670
   C        6.28693        -7.79746        12.85649
   C        6.24031        -4.11058        12.98056
   C        5.99707        -3.03115        12.16273
   C        5.98295        -1.81286        12.84264
   C        6.22637        -1.92267        14.19518
   S        6.48045        -3.59361        14.62692
   C        4.14555       -18.70478         7.73621
   C        4.35626       -19.54064         6.66739
   C        3.83892       -20.83561         6.83290
   C        3.21063       -20.99094         8.05645
   S        3.27506       -19.52593         8.99611
   C        3.91437       -21.91350         5.79320
   C        4.11912       -21.37984         4.37894
   C       -5.28869       -28.19094        14.66045
   C       -5.53185       -29.46214        15.13892
   C       -6.68024       -29.78387        15.88983
   C       -7.67918       -28.83803        16.21118
   C       -7.43948       -27.52761        15.72652
   C       -6.27328       -27.21729        14.97552
   N       -8.15481       -26.40171        15.83626
   N       -7.45210       -25.50827        15.19222
   N       -6.33155       -25.91996        14.66029
   C       -7.87097       -24.13962        15.09527
   C       -6.97581       -23.24707        15.94820
   C       -8.82652       -29.17119        16.95700
   C       -9.06998       -30.43901        17.43747
   C       -8.07990       -31.41689        17.14070
   C       -6.91715       -31.09194        16.38479
   N       -7.99938       -32.71720        17.45045
   N       -6.87507       -33.11129        16.91166
   N       -6.18574       -32.20606        16.27011
   C       -6.39976       -34.45621        17.06408
   C       -5.60676       -34.59995        18.35990
   C       -4.13514       -27.82514        13.89054
   C       -3.14803       -28.63451        13.37701
   C       -2.15648       -27.95453        12.65687
   C       -2.38431       -26.58649        12.62678
   S       -3.84545       -26.16505        13.48434
   C       -0.98056       -28.60637        11.99599
   C       -0.87332       -30.10525        12.24680
   C       -1.63406       -25.53857        12.02637
   S       -0.27164       -25.80528        10.96976
   C       -0.04855       -24.09347        10.73922
   C       -0.98299       -23.38037        11.45602
   C       -1.86883       -24.18635        12.16840
   C        0.97547       -23.59022         9.89307
   C        1.84112       -24.28647         9.08204
   C        2.70973       -23.46607         8.35514
   C        2.53125       -22.12355         8.59921
   S        1.25457       -21.87677         9.76244
   C      -10.24600       -30.77049        18.19399
   C      -10.60151       -31.98334        18.72025
   C      -11.83525       -31.96567        19.40842
   C      -12.40254       -30.72731        19.39745
   S      -11.45755       -29.56783        18.55320
   C      -12.41554       -33.15993        20.09914
   C      -11.69355       -33.42612        21.42068
   H        4.53478         7.13912        18.43580
   H        2.43044         5.82742        11.45856
   H        2.36148         7.60509        11.65411
   H        0.24308         5.62684        12.64229
   H        0.07336         6.71765        11.26161
   H        0.21294         7.37698        12.89799
   H        4.60088         3.15539        14.61344
   H        6.89197         2.68045        21.32975
   H        6.50401         4.39677        21.65710
   H        9.00870         3.38329        20.21267
   H        8.96457         3.96440        21.88236
   H        8.63182         5.07797        20.54999
   H        3.91336         9.28344        18.81636
   H        1.75746        12.11384        19.43948
   H        3.17071        12.83380        18.68393
   H        3.22663        10.55832        20.72670
   H        3.63816        12.24593        21.02407
   H        4.65224        11.27408        19.95924
   H       -0.75852        13.79644        14.19323
   H        0.53766        11.55729        14.45151
   H        0.10509        16.23862        18.28087
   H       -1.20979        18.47626        18.01897
   H       -2.47455        18.57831        15.72437
   H        6.71795         0.70015        18.04638
   H        6.75898        -2.86628        17.02502
   H        7.21426        -1.71349        18.28401
   H        8.85458        -2.31734        15.77374
   H        9.21711        -2.88545        17.40462
   H        9.29762        -1.15967        17.02980
   H        5.92691       -12.64093         7.39275
   H        4.89575       -13.56271        14.39117
   H        3.97478       -15.07058        14.10684
   H        2.89408       -12.22656        13.73957
   H        2.54409       -13.25883        15.13365
   H        1.96168       -13.71525        13.52831
   H        4.04892       -17.16250         9.94688
   H        5.99325       -14.79322         3.21275
   H        5.53755       -16.51501         3.03353
   H        8.24391       -15.48587         4.03458
   H        7.94138       -16.15508         2.42594
   H        7.79479       -17.18690         3.85461
   H        6.01896       -10.35415         7.63971
   H        7.30548        -7.08510         8.76903
   H        5.58451        -6.92144         8.45661
   H        7.51170        -8.58123         6.75773
   H        6.90399        -6.97430         6.35951
   H        5.79027        -8.33757         6.42617
   H        6.42127        -6.44835        14.57313
   H        6.32151        -8.74655        13.36123
   H        5.82581        -3.13544        11.10584
   H        5.80079        -0.86441        12.36861
   H        4.87049       -19.19835         5.78949
   H        2.98940       -22.49559         5.82936
   H        4.73840       -22.59155         6.04027
   H        3.35327       -20.64779         4.13355
   H        4.05727       -22.19779         3.66427
   H        5.09472       -20.91178         4.27511
   H       -4.83226       -30.26166        14.95336
   H       -8.90727       -24.10081        15.43462
   H       -7.80974       -23.83749        14.04641
   H       -7.04901       -23.52755        16.99623
   H       -7.27706       -22.20892        15.84107
   H       -5.94228       -23.35135        15.62746
   H       -9.53680       -28.38025        17.14898
   H       -5.76920       -34.67967        16.20158
   H       -7.26962       -35.11627        17.07447
   H       -4.74960       -33.93107        18.35051
   H       -5.25406       -35.62172        18.46747
   H       -6.23513       -34.35281        19.21216
   H       -3.15362       -29.69930        13.51544
   H       -0.06596       -28.11724        12.34649
   H       -1.03996       -28.42542        10.91751
   H       -0.79417       -30.31359        13.31131
   H        0.01507       -30.49555        11.75554
   H       -1.73937       -30.62837        11.84829
   H       -1.01383       -22.30500        11.45038
   H       -2.66789       -23.80731        12.78049
   H        1.83715       -25.36080         9.02267
   H        3.46877       -23.85069         7.70005
   H       -9.98857       -32.85829        18.60528
   H      -13.33240       -30.42293        19.83674
   H      -12.31649       -34.03367        19.45099
   H      -13.47742       -32.99284        20.28989
   H      -10.63373       -33.59558        21.24545
   H      -12.11010       -34.30255        21.91195
   H      -11.79824       -32.57221        22.08644
*
