# ORCA input file
# SCF done       -385.005447709557          0.000827860515
! wb97x-d3 def2-SVP def2/J RIJCOSX Grid4 TightSCF
%maxcore 5000
%tddft
    Mode sTDA
    Ethresh 5.0
    maxcore 5000
end

%pal
  nprocs 6
  end
* xyz 0 1
   C        3.88804        11.20442        -5.95942
   C        4.47160        11.79948        -7.09226
   C        5.87507        11.94486        -7.17809
   C        6.75188        11.51978        -6.18333
   C        6.16388        10.96201        -5.03164
   C        4.75651        10.82937        -4.94127
   C        3.81651        12.32560        -8.24492
   C        4.67584        12.81188        -9.16236
   S        6.33525        12.67724        -8.69334
   C        6.80922        10.49576        -3.86079
   C        5.95359        10.00637        -2.91786
   S        4.28111        10.10350        -3.42882
   C        2.45856        10.97209        -5.88409
   C        8.18651        11.64028        -6.34314
   C        1.63835        10.46598        -6.85205
   C        0.29576        10.34976        -6.43945
   C        0.08271        10.77553        -5.16494
   S        1.55815        11.31947        -4.43570
   C        8.89129        12.67433        -6.89279
   C       10.28194        12.45104        -6.91993
   C       10.64853        11.24254        -6.41314
   S        9.26408        10.35381        -5.87127
   C       -1.18596        10.77452        -4.38418
   C       -1.17157         9.68548        -3.30990
   C       12.01613        10.67504        -6.24982
   C       12.41728        10.60753        -4.77510
   C        6.29275         9.46965        -1.64459
   C        5.44873         9.08792        -0.62330
   C        6.11636         8.60969         0.50262
   C        7.48910         8.60714         0.35569
   S        7.95492         9.22100        -1.20797
   C        8.46591         8.17785         1.28775
   S       10.16547         8.13447         0.83897
   C       10.66395         7.53285         2.41092
   C        9.55332         7.39493         3.20898
   C        8.32710         7.74518         2.58749
   C       12.01866         7.24640         2.69969
   C       13.10349         7.33124         1.84689
   C       14.30054         6.94524         2.44236
   S       12.49326         6.68529         4.27627
   C       14.14735         6.56975         3.76126
   C        9.27616         6.96857         4.57854
   N        7.89793         7.08116         4.71364
   C        7.25405         7.53166         3.56521
   O       10.02657         6.60036         5.45445
   O        6.05852         7.69103         3.47630
   C        7.19792         6.72733         5.92906
   C        6.99406         5.21982         6.03206
   C       16.18156         4.96767         8.02283
   C       16.07424         5.35722         6.67215
   C       17.19713         5.28867         5.81151
   C       18.44311         4.82591         6.21964
   C       18.55960         4.46631         7.57844
   C       17.44131         4.55963         8.44440
   C       14.92850         5.84173         6.00146
   C       15.13089         6.10685         4.67864
   S       16.78402         5.79350         4.19208
   C       19.70787         3.99463         8.25617
   C       19.49745         3.71719         9.57567
   S       17.84608         4.04540        10.06127
   C       15.03606         4.96264         8.90970
   C       19.54234         4.70268         5.28428
   C       14.97180         5.33509        10.22336
   C       13.68545         5.19280        10.78052
   C       12.76749         4.69167         9.90877
   S       13.48359         4.38801         8.36375
   C       19.88550         5.55646         4.27264
   C       20.98845         5.11251         3.51812
   C       21.48657         3.91671         3.93659
   S       20.59335         3.31279         5.29027
   C       11.31205         4.44902        10.11310
   C       10.46599         5.45960         9.33396
   C       22.61251         3.12488         3.36736
   C       22.09816         1.91601         2.58288
   C       20.45467         3.21245        10.49983
   C       20.32606         3.05363        11.86491
   C       21.46526         2.51995        12.45901
   C       22.47545         2.25083        11.55463
   S       22.00707         2.68029         9.93377
   C       23.74040         1.67291        11.81293
   S       24.26394         1.28833        13.44892
   C       25.79154         0.60511        12.89984
   C       25.85332         0.69237        11.53092
   C       24.72148         1.29411        10.92844
   C       26.73203         0.06904        13.81119
   C       26.67625         0.09636        15.19218
   C       27.76017        -0.53049        15.79719
   S       28.15944        -0.75282        13.25137
   C       28.65418        -1.05822        14.88523
   C       26.79358         0.32231        10.47292
   N       26.17806         0.72621         9.29245
   C       24.93579         1.32476         9.48235
   O       27.87028        -0.22434        10.54035
   O       24.23572         1.75379         8.59382
   C       26.78753         0.57655         7.98952
   C       27.60632         1.80765         7.61687
   C       32.51400        -3.11127        17.34288
   C       31.63552        -2.75939        16.29769
   C       31.84273        -3.27358        14.99340
   C       32.86628        -4.15771        14.66757
   C       33.74799        -4.50394        15.71077
   C       33.55866        -3.96691        17.00822
   C       30.49886        -1.91670        16.35488
   C       29.84194        -1.79729        15.16329
   S       30.61792        -2.71153        13.89001
   C       34.87003        -5.36445        15.65321
   C       35.50841        -5.51897        16.85111
   S       34.75704        -4.57376        18.11904
   C       32.34860        -2.64330        18.70422
   C       32.97138        -4.70940        13.33224
   C       33.32491        -2.27168        19.58601
   C       32.82886        -1.91907        20.85620
   C       31.47748        -2.03445        20.96314
   S       30.78344        -2.56905        19.46799
   C       32.75561        -4.07694        12.13981
   C       32.87594        -4.92893        11.02458
   C       33.16374        -6.21763        11.35270
   S       33.31505        -6.39858        13.06933
   C       30.60745        -1.72403        22.13183
   C       29.85174        -0.40904        21.92892
   C       33.38000        -7.38298        10.45030
   C       34.84807        -7.81287        10.43361
   C       36.64834        -6.32724        17.12682
   C       37.30016        -7.19086        16.26763
   C       38.37720        -7.85063        16.85274
   C       38.57236        -7.50185        18.17501
   S       37.39083        -6.33204        18.69413
   C       39.56885        -7.98283        19.06031
   S       39.66714        -7.38089        20.70867
   C       41.04445        -8.39643        21.10049
   C       41.37706        -9.14080        19.99707
   C       40.56125        -8.91545        18.85742
   C       41.63662        -8.36483        22.38967
   C       41.25325        -7.59082        23.46325
   C       42.05202        -7.79695        24.59480
   S       43.00485        -9.36490        22.78996
   C       43.03208        -8.72010        24.37615
   C       42.37961       -10.15068        19.66024
   N       42.11354       -10.48620        18.33785
   C       41.04739        -9.78709        17.78192
   O       43.26026       -10.63510        20.33257
   O       40.66121        -9.93266        16.64485
   C       42.90321       -11.44255        17.59339
   C       44.07118       -10.76415        16.88592
   H        2.74819        12.35015        -8.35667
   H        4.44681        13.26427       -10.10742
   H        7.87159        10.53187        -3.70192
   H        1.99428        10.14665        -7.81556
   H       -0.48539         9.96327        -7.07028
   H        8.43290        13.58517        -7.23299
   H       10.98692        13.16520        -7.30730
   H       -2.02008        10.60692        -5.06870
   H       -1.32507        11.74688        -3.90563
   H       -1.04184         8.70677        -3.76576
   H       -2.10607         9.69029        -2.75447
   H       -0.35173         9.85406        -2.61581
   H       12.72295        11.30212        -6.79693
   H       12.05084         9.66898        -6.67548
   H       12.40010        11.60081        -4.33250
   H       13.41977        10.19923        -4.67538
   H       11.72619         9.97250        -4.22541
   H        4.37891         9.16489        -0.70373
   H        5.63201         8.27503         1.40224
   H       13.00889         7.65914         0.82641
   H       15.25284         6.93546         1.94244
   H        6.23649         7.24564         5.90702
   H        7.79469         7.08439         6.77276
   H        6.40827         4.85995         5.18920
   H        6.46746         4.98134         6.95189
   H        7.95658         4.71370         6.03703
   H       13.97589         6.00722         6.46985
   H       20.67214         3.86872         7.79880
   H       15.80980         5.73760        10.76350
   H       13.45003         5.45562        11.79682
   H       19.38821         6.49328         4.09722
   H       21.40194         5.66649         2.69387
   H       11.08924         4.52411        11.17985
   H       11.05771         3.43920         9.78055
   H       10.69598         6.47251         9.65715
   H        9.40835         5.27244         9.50366
   H       10.66539         5.38655         8.26704
   H       23.26066         2.77736         4.17543
   H       23.19847         3.76939         2.70849
   H       21.52686         1.26023         3.23591
   H       22.93046         1.35399         2.16674
   H       21.45383         2.23960         1.76846
   H       19.43156         3.32183        12.39861
   H       21.56683         2.32085        13.51153
   H       25.86583         0.56088        15.72622
   H       27.88478        -0.61879        16.86091
   H       25.98142         0.42404         7.26768
   H       27.42622        -0.30897         8.02848
   H       26.96752         2.68756         7.59000
   H       28.05487         1.66973         6.63695
   H       28.39787         1.96595         8.34576
   H       30.18582        -1.40050        17.24267
   H       35.20111        -5.84581        14.75279
   H       34.36610        -2.21625        19.32462
   H       33.45795        -1.59592        21.66663
   H       32.55109        -3.02494        12.05737
   H       32.74475        -4.59480        10.01073
   H       31.23250        -1.65455        23.02458
   H       29.88645        -2.53176        22.27973
   H       30.55156         0.41165        21.78811
   H       29.23135        -0.19315        22.79500
   H       29.21304        -0.47371        21.05082
   H       33.06470        -7.10665         9.44204
   H       32.76578        -8.22410        10.78224
   H       35.47871        -6.99361        10.09557
   H       34.98601        -8.65781         9.76380
   H       35.16568        -8.10548        11.43199
   H       36.99456        -7.34061        15.24857
   H       39.00216        -8.56407        16.34626
   H       40.42477        -6.90603        23.41814
   H       41.90905        -7.28561        25.52973
   H       43.77488        -9.06192        25.06985
   H       42.24118       -11.91756        16.86524
   H       43.26959       -12.18592        18.30551
   H       43.70271       -10.01534        16.18843
   H       44.64769       -11.50225        16.33550
   H       44.72084       -10.28258        17.61325
*
