# ORCA input file
# SCF done       -435.104484330190          0.000528694124
! wb97x-d3 def2-SVP def2/J RIJCOSX Grid4 TightSCF
%maxcore 5000
%tddft
    Mode sTDA
    Ethresh 5.0
    maxcore 5000
end

%pal
  nprocs 6
  end
* xyz 0 1
   C       -1.60070         7.17371         4.61521
   C       -2.31960         6.13671         5.23647
   C       -1.65780         4.94787         5.62351
   C       -0.30003         4.72494         5.41410
   C        0.42757         5.77698         4.82813
   C       -0.23636         6.96508         4.43897
   C       -3.70497         6.09633         5.57228
   C       -4.07209         4.93604         6.15184
   S       -2.77074         3.81420         6.33996
   C        1.81851         5.83509         4.55630
   C        2.20985         6.98765         3.94427
   S        0.86722         8.08530         3.68674
   C       -2.22543         8.40273         4.16434
   C        0.34092         3.46887         5.74930
   C       -1.72969         9.67182         4.25489
   C       -2.58053        10.63204         3.66753
   C       -3.71352        10.11807         3.10781
   S       -3.75324         8.40306         3.32740
   C        1.24344         2.76503         5.00415
   C        1.65344         1.57098         5.63467
   C        1.09015         1.35636         6.85872
   S        0.00570         2.64686         7.24703
   C       -4.83786        10.84163         2.45299
   C       -5.93545        11.17976         3.46499
   C        1.25457         0.18951         7.76836
   C        0.14300        -0.83821         7.54199
   C        3.51957         7.36442         3.52860
   S        4.89943         6.37144         3.90025
   C        5.96989         7.48142         3.09637
   C        5.27182         8.53947         2.57382
   C        3.89596         8.48115         2.82456
   C        7.39501         7.23706         2.99848
   C        8.17053         6.81734         4.09242
   C        9.55894         6.60878         3.93516
   C       10.22831         6.77187         2.72408
   C        9.45549         7.21194         1.63467
   C        8.07010         7.43302         1.79595
   C        9.88353         7.51705         0.30874
   C        8.88646         7.91308        -0.51193
   S        7.33949         7.94717         0.29932
   C        8.96707         8.27636        -1.95373
   C        8.32863         7.19808        -2.83137
   C        7.75418         6.59110         5.43725
   C        8.75281         6.20683         6.26148
   S       10.28734         6.10211         5.43457
   C        8.68845         5.92384         7.72185
   C        9.44770         6.98215         8.52425
   C       11.64727         6.51758         2.58855
   S       12.75678         7.02281         3.82656
   C       14.11147         6.40646         2.92642
   C       13.70102         5.84350         1.74384
   C       12.31389         5.90612         1.55681
  Cl       -2.20564        12.31265         3.65598
  Cl        2.77767         0.48445         4.91046
   C       17.79330         7.37828         6.15658
   C       17.14083         7.02103         4.96029
   C       17.89171         6.59744         3.83670
   C       19.28063         6.50916         3.83420
   C       19.93529         6.88395         5.02520
   C       19.18090         7.29217         6.15248
   C       15.74880         6.96778         4.71297
   C       15.42466         6.53629         3.46183
   S       16.84513         6.15933         2.51023
   C       21.32812         6.96245         5.27069
   C       21.64364         7.38582         6.52772
   S       20.21666         7.72007         7.48693
   C       17.06855         7.81428         7.33330
   C       19.99778         6.03671         2.66737
   C       17.33423         7.51832         8.63987
   C       16.42618         8.12736         9.53251
   C       15.47863         8.90522         8.93421
   S       15.69854         8.88512         7.21911
   C       19.70893         6.27168         1.35302
   C       20.58432         5.60050         0.47339
   C       21.54167         4.84900         1.08978
   S       21.36282         4.96126         2.80597
   C       14.33694         9.63806         9.54710
   C       13.01525         8.91508         9.27603
   C       22.58874         3.98674         0.47615
   C       22.10818         2.53839         0.35601
   C       22.93873         7.55084         7.09465
   S       24.36862         7.27919         6.14354
   C       25.39846         7.62894         7.50261
   C       24.64701         7.94145         8.60830
   C       23.26729         7.89396         8.38314
   C       26.84126         7.62079         7.38885
   C       27.54037         6.66560         6.62753
   C       28.94880         6.72769         6.53516
   C       29.71894         7.70746         7.15774
   C       29.02420         8.64041         7.94817
   C       27.61630         8.58088         8.04006
   C       29.55970         9.70043         8.73832
   C       28.62289        10.44726         9.36139
   S       27.00484         9.87778         9.03233
   C       28.82271        11.60641        10.27475
   C       28.44296        11.25261        11.71353
   C       27.01973         5.55402         5.90149
   C       27.96122         4.82744         5.26091
   S       29.56872         5.45640         5.51853
   C       27.77617         3.60488         4.43097
   C       28.47915         2.39675         5.05096
   C       31.15595         7.77465         6.99944
   S       32.12470         6.33138         6.99981
   C       33.58160         7.25618         6.78674
   C       33.30590         8.59950         6.71730
   C       31.94108         8.88848         6.83574
  Cl       16.51997         7.89694        11.23670
  Cl       20.45232         5.73398        -1.23816
   C       37.00222         3.62285         6.41920
   C       36.43346         4.90943         6.50496
   C       37.26687         6.05444         6.53724
   C       38.65445         5.98981         6.52565
   C       39.22504         4.70443         6.44302
   C       38.39222         3.56039         6.39532
   C       35.06484         5.25574         6.60959
   C       34.84041         6.59798         6.68972
   S       36.32906         7.51929         6.65295
   C       40.59659         4.36585         6.33780
   C       40.82555         3.02689         6.22372
   S       39.33658         2.10267         6.24066
   C       36.19819         2.42043         6.33547
   C       39.48783         7.17320         6.60434
   C       36.45384         1.20005         6.89398
   C       35.48365         0.23244         6.55813
   C       34.48633         0.68787         5.74605
   S       34.74579         2.35592         5.37359
   C       40.61684         7.35709         7.34982
   C       41.17600         8.64175         7.17956
   C       40.49964         9.44082         6.30477
   S       39.11943         8.60359         5.68236
   C       33.33820        -0.06301         5.16771
   C       33.67775        -0.59882         3.77470
   C       40.77820        10.85354         5.92665
   C       39.94263        11.81930         6.77030
   C       42.07954         2.36055         6.11931
   S       43.56958         3.23923         6.30300
   C       44.50882         1.79403         6.06149
   C       43.68671         0.71470         5.85364
   C       42.32380         1.03033         5.88288
   C       45.95326         1.80304         6.15857
   C       46.74552         2.85356         5.65970
   C       48.14835         2.82420         5.83015
   C       48.81995         1.80176         6.49127
   C       48.03390         0.73803         6.96284
   C       46.63288         0.75968         6.78796
   C       48.46699        -0.44510         7.63214
   C       47.46060        -1.27071         7.98962
   S       45.89976        -0.65044         7.50575
   C       47.54609        -2.59394         8.66758
   C       47.23620        -3.73401         7.69572
   C       46.33467         4.01818         4.94733
   C       47.34902         4.84928         4.62150
   S       48.89634         4.24629         5.15717
   C       47.28222         6.13152         3.86749
   C       47.92135         5.99605         2.48446
   C       50.25474         1.82980         6.70840
   S       51.35732         2.23106         5.42410
   C       52.70484         2.02920         6.46931
   C       52.33199         1.68217         7.72747
   C       50.93390         1.56367         7.86415
  Cl       35.55642        -1.38658         7.13966
  Cl       42.60126         9.14371         8.00753
   H       -4.38566         6.90712         5.39168
   H       -5.04631         4.65249         6.49887
   H        2.51253         5.05820         4.82101
   H       -0.81129         9.92693         4.74969
   H        1.57319         3.05704         4.02428
   H       -5.25588        10.22313         1.65645
   H       -4.45186        11.76338         2.01275
   H       -6.33601        10.26975         3.90613
   H       -6.74448        11.71547         2.97546
   H       -5.53497        11.80412         4.26003
   H        1.22830         0.52904         8.80559
   H        2.22525        -0.27237         7.57682
   H       -0.82931        -0.38910         7.73152
   H        0.27369        -1.68541         8.21016
   H        0.16504        -1.19700         6.51578
   H        5.74526         9.35191         2.05317
   H        3.19185         9.22774         2.50256
   H       10.91036         7.46669        -0.00403
   H       10.01657         8.40337        -2.22720
   H        8.45027         9.22474        -2.12044
   H        8.83651         6.24640        -2.69164
   H        8.39498         7.47760        -3.87965
   H        7.28042         7.07229        -2.56973
   H        6.74113         6.72025         5.77195
   H        9.12565         4.94227         7.92242
   H        7.64130         5.90259         8.03033
   H       10.49499         6.99766         8.23155
   H        9.38638         6.76479         9.58749
   H        9.02452         7.96798         8.34511
   H       14.38543         5.39511         1.04543
   H       11.81076         5.47525         0.70975
   H       14.99570         7.22089         5.43563
   H       22.08386         6.72845         4.54369
   H       18.11908         6.85989         8.96220
   H       18.92640         6.92443         1.01424
   H       14.28570        10.64856         9.13502
   H       14.50555         9.71048        10.62302
   H       12.83595         8.84719         8.20509
   H       12.19033         9.45439         9.73419
   H       13.04472         7.90901         9.68806
   H       23.49254         4.02007         1.08793
   H       22.82516         4.37607        -0.51633
   H       21.87203         2.13623         1.33869
   H       22.88149         1.92327        -0.09680
   H       21.21578         2.48810        -0.26311
   H       25.07841         8.16111         9.56763
   H       22.52600         8.09640         9.13570
   H       30.61399         9.87643         8.84886
   H       28.20706        12.44496         9.93896
   H       29.87056        11.91083        10.23242
   H       27.39563        10.96425        11.76585
   H       28.60175        12.10751        12.36579
   H       29.04903        10.42340        12.07150
   H       25.97575         5.30256         5.86907
   H       28.18439         3.78055         3.43176
   H       26.70698         3.40591         4.33351
   H       29.54636         2.58793         5.13876
   H       28.33169         1.51568         4.43148
   H       28.08139         2.19578         6.04311
   H       34.07094         9.34202         6.57366
   H       31.53686         9.88169         6.75613
   H       34.26059         4.54389         6.63456
   H       41.39178         5.08835         6.31634
   H       37.27974         0.99701         7.54972
   H       41.01632         6.62628         8.02843
   H       32.46925         0.59479         5.10178
   H       33.09515        -0.89642         5.83015
   H       33.91927         0.22210         3.10328
   H       32.83191        -1.14637         3.36720
   H       34.53342        -1.26759         3.82694
   H       40.54531        11.00099         4.87024
   H       41.83991        11.05601         6.08135
   H       38.88240        11.62530         6.62461
   H       40.15344        12.84642         6.48410
   H       40.17586        11.69642         7.82522
   H       44.05700        -0.27362         5.65143
   H       41.53533         0.31432         5.73269
   H       49.50224        -0.66457         7.82080
   H       46.83380        -2.62660         9.49585
   H       48.55234        -2.71748         9.07345
   H       46.23101        -3.62370         7.29541
   H       47.30534        -4.69209         8.20449
   H       47.94146        -3.72678         6.86767
   H       45.31387         4.22262         4.68138
   H       47.80591         6.91016         4.42817
   H       46.23573         6.42640         3.76649
   H       48.96585         5.70787         2.57942
   H       47.86758         6.94135         1.95040
   H       47.40472         5.23650         1.90200
   H       53.69321         2.18118         6.08364
   H       53.02550         1.51691         8.53262
   H       50.44303         1.32792         8.79168
*
