# ORCA input file
# SCF done       -161.109052842562          0.000843444458
! wb97x-d3 def2-SVP def2/J RIJCOSX Grid4 TightSCF
%maxcore 5000
%tddft
    Mode sTDA
    Ethresh 5.0
    maxcore 5000
end

%pal
  nprocs 6
  end
* xyz -1 2
   C        0.67519        -0.34297         0.26593
   C        0.86403        -0.36355         1.63098
   C        0.88743         0.80943         2.49236
   C        1.09489         0.31385         3.86617
   C        1.19943        -1.08784         3.83716
   C        1.05796        -1.54202         2.45102
   C        1.18484         1.03530         5.03980
   C        1.38702         0.32765         6.21410
   C        1.49601        -1.06276         6.19591
   C        1.40438        -1.78687         5.01546
   O        0.76114         1.98110         2.16173
   C        1.10287        -2.84966         2.04404
   C        0.97572        -3.30433         0.71412
   C        1.28467        -3.94455         2.91653
   F        1.69338        -1.71998         7.34353
   F        1.47906         0.98451         7.37622
   N        1.42510        -4.87877         3.56780
   N        0.88430        -3.75847        -0.33693
   C        0.47260         0.72793        -0.60889
   C        0.28762         0.50828        -1.98225
   C        0.08945         1.62654        -2.76259
   C        0.10453         2.83229        -2.06623
  Se        0.39462         2.57896        -0.23456
   C       -0.08237         4.11265        -2.63422
   S       -0.37459         4.34652        -4.33005
   C       -0.49873         6.07790        -4.13605
   C       -0.31002         6.43448        -2.80147
   C       -0.08551         5.32685        -1.98081
   C       -0.32569         7.81463        -2.22491
   C        1.08485         8.40714        -2.18101
   C       -0.75026         6.90618        -5.26820
   S       -0.35932         8.60701        -5.20391
   C       -0.91666         8.86787        -6.82414
   C       -1.37254         7.68601        -7.36806
   C       -1.28246         6.58137        -6.51416
   C       -1.73227         5.23010        -6.97277
   C       -0.60358         4.49170        -7.69571
   C       -0.87276        10.16783        -7.38734
   C       -1.21772        10.54235        -8.67761
   C       -1.10231        11.89848        -8.94858
   C       -0.62055        12.69387        -7.91398
  Se       -0.30971        11.63950        -6.37984
   C       -0.53531        14.09900        -7.96602
   C        0.02990        14.97367        -7.08031
   C       -0.44530        16.37804        -7.03222
   C        0.02337        16.89385        -5.72251
   C        0.82964        15.92533        -5.09835
   C        0.97383        14.78509        -6.00363
   C       -0.25621        18.10481        -5.12099
   C        0.27641        18.33661        -3.86225
   C        1.06710        17.37441        -3.23296
   C        1.35959        16.16247        -3.84115
   O       -1.11352        16.95465        -7.85788
   C        2.01457        13.89005        -5.98603
   C        2.29698        13.03064        -7.06898
   C        2.96504        13.80908        -4.94902
   F        1.55253        17.62084        -2.01125
   F        0.02571        19.49499        -3.24064
   N        3.74671        13.69408        -4.11664
   N        2.57880        12.35528        -7.95370
   H        0.67686        -1.30538        -0.23348
   H        1.10188         2.11023         5.04890
   H        1.49525        -2.85965         5.05774
   H        0.30060        -0.49062        -2.38721
   H       -0.06656         1.58585        -3.82848
   H        0.07064         5.39666        -0.91523
   H       -0.98451         8.46800        -2.79813
   H       -0.71509         7.75473        -1.20636
   H        1.51081         8.47069        -3.17928
   H        1.05678         9.40649        -1.75556
   H        1.73474         7.78606        -1.56911
   H       -1.77401         7.61806        -8.36327
   H       -2.08396         4.63346        -6.13056
   H       -2.56802         5.36233        -7.66320
   H        0.24839         4.34971        -7.03581
   H       -0.94871         3.51683        -8.02917
   H       -0.27531         5.06060        -8.56241
   H       -1.55255         9.82831        -9.40971
   H       -1.34228        12.32121        -9.90996
   H       -1.09061        14.56844        -8.77375
   H       -0.86719        18.84876        -5.60681
   H        1.97262        15.44611        -3.31862
*
