# ORCA input file
# SCF done       -190.440156832197          0.000856122531
! wb97x-d3 def2-SVP def2/J RIJCOSX Grid4 TightSCF
%maxcore 5000
%tddft
    Mode sTDA
    Ethresh 5.0
    maxcore 5000
end

%pal
  nprocs 6
  end
* xyz -1 2
   C       -0.91055        -0.71534         0.65836
   O       -0.87889         0.47504         0.92007
   C       -1.62179        -1.75511         1.42825
   C       -2.38738        -1.61252         2.56644
   C       -2.96255        -2.75054         3.11854
   C       -2.76049        -4.00056         2.52462
   C       -1.98669        -4.13807         1.37642
   C       -1.41249        -3.00620         0.82291
   C       -0.56460        -2.82307        -0.35557
   C       -0.14756        -3.83062        -1.18816
   C        0.67140        -3.67747        -2.32603
   N        1.33329        -3.63953        -3.26482
   C       -0.48493        -5.18964        -1.01506
   N       -0.71918        -6.31043        -0.93631
   C       -0.26389        -1.40926        -0.45506
   C        0.50149        -0.82829        -1.44066
   C        0.86301         0.50222        -1.65762
   S        0.40440         1.85798        -0.62387
   C        1.25731         2.94586        -1.65161
   C        1.85496         2.28375        -2.74026
   C        1.64966         0.91238        -2.75156
   C        2.16556         0.02557        -3.83674
   C        1.09597        -0.20586        -4.90792
   S        2.72262         3.35541        -3.82545
   C        2.28076         4.68404        -2.81130
   C        1.51623         4.31784        -1.69744
   N        1.19736         5.42925        -0.96645
   C        0.29195         5.28065         0.14962
   C        1.00684         4.76249         1.39776
   C        1.76152         6.53033        -1.58184
   C        2.42607         6.07425        -2.76393
   C        3.02837         6.95667        -3.68700
   N        3.64622         6.67115        -4.82255
   S        4.10167         8.05908        -5.51950
   N        3.52908         9.07653        -4.39848
   C        2.96139         8.36351        -3.43823
   C        2.36515         8.81293        -2.24000
   C        1.79957         7.92101        -1.27810
   N        1.40077         8.67691        -0.18919
   C        0.91273         8.33059         1.12401
   C       -0.58998         8.57834         1.25585
   C        1.67338         9.99099        -0.45497
   C        2.26357        10.10781        -1.71716
   S        2.67983        11.72688        -2.14178
   C        2.07879        12.26631        -0.58626
   C        1.56414        11.22251         0.19987
  Se        0.91067        11.88093         1.81097
   C        1.53370        13.60108         1.24088
   C        2.05686        13.56220        -0.05007
   C        2.46308        14.72477        -0.89132
   C        1.40676        15.82488        -0.96688
   C        1.31527        14.62590         2.17817
   C        2.01508        15.78375         2.41161
   C        1.58144        16.85152         3.29001
   C        0.32706        17.02041         3.81722
   C       -0.03822        18.09177         4.65903
   N       -0.39568        18.93258         5.35388
   C       -0.77609        16.17487         3.57458
   N       -1.72342        15.54780         3.40505
   C        2.69883        17.78024         3.44151
   C        2.83058        18.94594         4.17749
   C        4.03532        19.63858         4.11752
   C        5.09855        19.17758         3.33414
   C        4.97131        18.00433         2.60035
   C        3.77398        17.32258         2.66106
   C        3.40209        16.05314         1.99863
   O        4.13656        15.34409         1.33955
  Cl        6.57007        20.06180         3.27761
  Cl       -3.92395        -2.61725         4.53539
  Cl       -3.47637        -5.39971         3.21690
  Cl        4.21052        21.08332         5.02907
   H       -2.53439        -0.64233         3.01399
   H       -1.85463        -5.11832         0.94921
   H        0.89554        -1.50351        -2.18757
   H        3.02709         0.51515        -4.29507
   H        2.49113        -0.93586        -3.43702
   H        0.78948         0.74058        -5.34707
   H        1.49456        -0.84276        -5.69213
   H        0.22142        -0.69153        -4.48162
   H       -0.21927         6.22108         0.33266
   H       -0.46332         4.54389        -0.14354
   H        1.88257         5.36260         1.63789
   H        0.32500         4.77530         2.24312
   H        1.33379         3.73836         1.24080
   H        1.17778         7.30372         1.35720
   H        1.43460         8.97712         1.84214
   H       -1.14847         8.08720         0.46165
   H       -0.94203         8.21148         2.21573
   H       -0.79955         9.64587         1.19852
   H        3.39480        15.13507        -0.48955
   H        2.67036        14.35436        -1.89793
   H        1.23305        16.27936         0.00478
   H        1.73723        16.60087        -1.65250
   H        0.46389        15.42128        -1.33051
   H        0.49113        14.42463         2.85759
   H        2.03520        19.32820         4.79605
   H        5.78539        17.63587         1.99646
*
