# ORCA input file
# SCF done       -191.213916959257          0.001068415210
! wb97x-d3 def2-SVP def2/J RIJCOSX Grid4 TightSCF
%maxcore 5000
%tddft
    Mode sTDA
    Ethresh 5.0
    maxcore 5000
end

%pal
  nprocs 6
  end
* xyz -1 2
   C       -1.36875         1.53126         3.95274
   C       -1.46705         2.94134         4.02667
   S       -1.05302         3.75004         2.51242
   C       -0.74319         2.22700         1.81512
   C       -0.93519         1.13538         2.68689
   N       -0.64204        -0.03364         2.00126
   C       -1.11304        -1.33708         2.41694
   C       -0.26996         0.30682         0.70953
   C       -0.36393         1.71777         0.56791
   C       -0.20120         2.36434        -0.67656
   N       -0.29563         3.65372        -0.96097
   S       -0.11408         3.84276        -2.55559
   N        0.09507         2.28746        -2.94925
   C        0.03119         1.56416        -1.84171
   C        0.22486         0.17475        -1.68172
   C        0.15911        -0.45960        -0.40656
   N        0.53641        -1.78985        -0.56186
   C        1.15539        -2.67792         0.40047
   C        2.48314        -2.10772         0.89332
   C        0.81838        -1.98609        -1.88911
   C        0.61029        -0.80371        -2.60894
   S        0.95245        -0.93896        -4.29773
   C        1.40282        -2.60441        -4.04145
   C        1.28060        -3.02099        -2.70704
   C       -0.18977        -2.03186         3.42126
   C        3.29043        -6.29745        -7.26225
   C        3.52009        -6.09880        -8.60348
   C        4.08881        -7.07605        -9.50913
   C        4.50412        -8.34991        -9.21537
   C        5.04887        -9.24263       -10.16316
   N        5.49405       -10.01656       -10.88403
   C        4.45578        -8.96192        -7.94556
   N        4.45470        -9.53295        -6.94821
   C        4.15903        -6.45500       -10.83357
   C        4.61737        -6.93607       -12.04995
   C        4.55869        -6.09115       -13.14878
   F        4.99671        -6.53758       -14.33130
   C        4.05708        -4.79313       -13.05108
   C        3.59648        -4.30431       -11.83877
   C        3.65507        -5.14645       -10.74668
   C        3.23746        -4.87456        -9.35501
   O        2.75892        -3.83541        -8.94044
   S        1.74949        -4.68154        -2.46836
   C        2.12530        -4.81071        -4.16862
   C        1.88375        -3.61988        -4.87372
   C        2.62932        -5.84605        -4.93845
   C        2.77702        -5.44533        -6.28072
   S        2.27250        -3.77021        -6.54045
   F        4.02128        -4.01315       -14.13785
   C       -1.73427         6.07228         4.57324
   O       -1.44525         6.03435         3.39334
   C       -1.96162         7.29785         5.37101
   C       -1.88412         8.61302         4.95985
   C       -2.13645         9.59614         5.90346
   C       -2.45607         9.25368         7.21721
   F       -2.69282        10.22299         8.10920
   C       -2.53606         7.93110         7.62817
   C       -2.28578         6.94179         6.69007
   C       -2.28772         5.48096         6.79556
   C       -2.56483         4.78286         7.94448
   C       -2.57774         3.37976         8.08221
   N       -2.60929         2.24802         8.28159
   C       -2.88119         5.38502         9.18098
   N       -3.14213         5.79936        10.21924
   C       -1.94215         4.95039         5.49296
   C       -1.83430         3.60996         5.19833
   F       -2.07180        10.88625         5.55179
   C        2.91554        -7.20540        -4.38838
   C        1.74641        -8.15973        -4.64849
   C       -1.64129         0.65278         5.13580
   C       -0.42615         0.58910         6.06737
   H       -2.10837        -1.21546         2.85725
   H       -1.24170        -1.94143         1.51666
   H        0.49078        -2.88103         1.23385
   H        1.33251        -3.62391        -0.11646
   H        3.16405        -1.96606         0.05729
   H        2.94242        -2.79244         1.60100
   H        2.33281        -1.14444         1.37651
   H       -0.28270        -1.59367         4.40808
   H       -0.45365        -3.08407         3.49530
   H        0.85086        -1.94668         3.12354
   H        3.55302        -7.27533        -6.88250
   H        5.01428        -7.92927       -12.18132
   H        3.20799        -3.30179       -11.75670
   H       -1.63584         8.87091         3.94266
   H       -2.78757         7.72272         8.65497
   H       -2.05899         2.95035         6.02390
   H        3.82495        -7.62104        -4.82480
   H        3.06753        -7.11389        -3.31049
   H        1.56956        -8.27062        -5.71537
   H        1.97214        -9.13803        -4.23397
   H        0.83786        -7.78338        -4.18371
   H       -1.90014        -0.34997         4.80355
   H       -2.49805         1.02681         5.69819
   H       -0.20967         1.56978         6.48183
   H       -0.62679        -0.09027         6.89124
   H        0.45737         0.24811         5.53185
*
