# ORCA input file
# SCF done       -261.764419242361          0.000585844056
! wb97x-d3 def2-SVP def2/J RIJCOSX Grid4 TightSCF
%maxcore 5000
%tddft
    Mode sTDA
    Ethresh 5.0
    maxcore 5000
end

%pal
  nprocs 6
  end
* xyz -1 2
   C        0.75660        -0.54032         1.44172
   C        2.00557        -1.08832         1.53963
   C        2.87911        -1.71524         0.57207
   C        3.93366        -2.39590         1.32594
   C        3.84492        -2.01814         2.67741
   C        2.68131        -1.12143         2.86022
   O        2.32735        -0.56376         3.87347
   C        2.91944        -1.50159        -0.78278
   C        3.93703        -1.99812        -1.62488
   N        4.74956        -2.35294        -2.35400
   C        2.05862        -0.64821        -1.50176
   N        1.44786         0.07136        -2.15582
   C        4.92808        -3.26765         0.91734
   C        5.82903        -3.74045         1.86558
   C        5.74540        -3.34588         3.20493
   C        4.74189        -2.47811         3.61909
   C       -0.17949        -0.73224         0.40978
   C       -0.27975        -1.80333        -0.47185
   C       -1.28910        -1.62413        -1.39900
   C       -1.95627        -0.41178        -1.25533
   S       -1.40945         0.48271         0.09383
   C       -1.74194        -2.32289        -2.65768
   C       -2.69561        -1.28228        -3.22676
   C       -2.84387        -0.20519        -2.35563
   C       -0.46898        -2.55701        -3.44493
   C       -2.54954        -3.57671        -2.35614
   C        0.38372        -3.59009        -3.06067
   C        1.62231        -3.73442        -3.64108
   C        2.05984        -2.83132        -4.61357
   C        1.20803        -1.80422        -5.00500
   C       -0.03883        -1.67024        -4.41762
   C       -3.47249        -3.55021        -1.31362
   C       -4.25195        -4.64802        -1.02898
   C       -4.13988        -5.81535        -1.78775
   C       -3.22749        -5.84441        -2.83598
   C       -2.44722        -4.73334        -3.11167
   O        3.30449        -3.04453        -5.09560
   C        3.93126        -2.03348        -5.86186
   C        5.40620        -2.38811        -5.95784
   O       -4.95137        -6.83904        -1.42382
   C       -4.89566        -8.05408        -2.14608
   C       -5.89803        -9.00917        -1.51781
   C       -3.39424        -1.30919        -4.45054
   C       -4.26327        -0.20388        -4.74440
   C       -4.40907         0.85465        -3.80522
   C       -3.71329         0.86916        -2.63779
   C       -3.25073        -2.32517        -5.39625
   C       -3.90806        -2.28809        -6.61871
   C       -4.76359        -1.17394        -6.91994
   C       -4.93126        -0.17301        -5.96182
   C       -3.73018        -3.32756        -7.57451
   C       -4.33251        -3.28419        -8.79136
   C       -5.14758        -2.17453        -9.10286
   C       -5.37685        -1.14876        -8.19013
   C       -5.82347        -1.84737       -10.31727
   C       -6.45782        -0.60785       -10.18862
   C       -6.25032        -0.05806        -8.79491
   C       -7.61285         0.08266        -8.14399
   C       -8.04335        -0.76649        -7.13158
   C       -9.30729        -0.63732        -6.59574
   C      -10.18714         0.33908        -7.06439
   C       -9.76522         1.18346        -8.08695
   C       -8.49472         1.04626        -8.61548
   C       -5.44636         1.23430        -8.82963
   C       -5.77522         2.35275        -8.07281
   C       -4.98196         3.47942        -8.10120
   C       -3.82699         3.52538        -8.88361
   C       -3.49415         2.40760        -9.64217
   C       -4.29825         1.28299        -9.60744
   S       -5.99789        -2.55096       -11.86161
   C       -6.94727        -1.16342       -12.38071
   C       -7.09195        -0.22303       -11.34603
   O      -11.40551         0.37815        -6.46913
   C      -12.35652         1.32811        -6.91068
   C      -13.62024         1.13279        -6.08829
   O       -3.13662         4.69424        -8.83827
   C       -1.88671         4.80297        -9.49008
   C       -0.76647         4.09763        -8.73120
   C       -7.50639        -0.95747       -13.64443
   C       -7.46671        -1.72858       -14.78327
   C       -8.08781        -1.39519       -16.04837
   C       -7.76264        -2.46710       -16.99036
   C       -6.98492        -3.43161       -16.32731
   C       -6.77412        -3.01108       -14.92657
   O       -6.14476        -3.62170       -14.08176
   C       -8.85216        -0.29494       -16.34407
   C       -9.42268        -0.04574       -17.61016
   N       -9.91108         0.22215       -18.61395
   C       -9.19222         0.74223       -15.45101
   N       -9.52311         1.62426       -14.79289
   C       -8.08468        -2.64840       -18.32486
   C       -7.62540        -3.79070       -18.97289
   C       -6.85424        -4.74536       -18.30279
   C       -6.52803        -4.56630       -16.96393
  Cl       -6.30556        -6.14481       -19.13368
  Cl       -8.01957        -4.02155       -20.62892
  Cl        7.06235        -4.82878         1.37190
  Cl        6.88392        -3.93757         4.34651
   H        0.45188         0.07426         2.28273
   H        5.01835        -3.59626        -0.10517
   H        4.66534        -2.16951         4.64961
   H        0.35377        -2.66903        -0.40368
   H        0.07326        -4.28345        -2.29202
   H        2.28998        -4.52861        -3.34580
   H        1.50951        -1.09185        -5.75628
   H       -0.67344        -0.85131        -4.72030
   H       -3.58146        -2.65713        -0.71588
   H       -4.96328        -4.63000        -0.21872
   H       -3.11094        -6.72473        -3.44831
   H       -1.73900        -4.79243        -3.92516
   H        3.47755        -1.98206        -6.86241
   H        3.80821        -1.06068        -5.36761
   H        5.52583        -3.35072        -6.44730
   H        5.93577        -1.62818        -6.52536
   H        5.82440        -2.45091        -4.95727
   H       -5.14885        -7.87711        -3.20075
   H       -3.88306        -8.47790        -2.09334
   H       -6.89615        -8.58284        -1.56616
   H       -5.88809        -9.95747        -2.04722
   H       -5.64482        -9.17901        -0.47502
   H       -5.07976         1.66289        -4.05669
   H       -3.80399         1.67902        -1.93014
   H       -2.59506        -3.15276        -5.18125
   H       -5.58501         0.65677        -6.17648
   H       -3.08894        -4.15427        -7.30614
   H       -4.19551        -4.06251        -9.52618
   H       -7.39059        -1.53824        -6.75362
   H       -9.64189        -1.29193        -5.80674
   H      -10.41450         1.94812        -8.48284
   H       -8.18431         1.71436        -9.40473
   H       -6.66137         2.35266        -7.45529
   H       -5.23740         4.34974        -7.51757
   H       -2.61480         2.39419       -10.26647
   H       -4.01683         0.42400       -10.19978
   H       -7.64007         0.69014       -11.49174
   H      -11.96612         2.34576        -6.77000
   H      -12.57127         1.17803        -7.97780
   H      -13.40264         1.27727        -5.03365
   H      -14.37714         1.84729        -6.39861
   H      -14.00129         0.12494        -6.22791
   H       -1.95334         4.43545       -10.52149
   H       -1.69276         5.87867        -9.52194
   H       -0.95629         3.02916        -8.66106
   H        0.17889         4.25641        -9.24261
   H       -0.69505         4.49907        -7.72349
   H       -8.05177        -0.02410       -13.71459
   H       -8.67600        -1.93644       -18.87652
   H       -5.93337        -5.29351       -16.43409
*
