# ORCA input file
# SCF done       -227.972571469880          0.000986440345
! wb97x-d3 def2-SVP def2/J RIJCOSX Grid4 TightSCF
%maxcore 5000
%tddft
    Mode sTDA
    Ethresh 5.0
    maxcore 5000
end

%pal
  nprocs 6
  end
* xyz -1 2
   C       -4.00568         4.32869        -7.83736
   O       -4.31644         4.16421        -6.67137
   C       -4.48881         3.53565        -8.98791
   C       -5.37475         2.47729        -8.98966
   C       -5.67626         1.89467       -10.21041
   C       -5.09778         2.37074       -11.38672
   C       -4.20642         3.43402       -11.38338
   C       -3.89963         4.02230       -10.16681
   C       -3.01306         5.13717        -9.82499
   C       -2.24672         5.83512       -10.72301
   C       -1.36491         6.89108       -10.41133
   N       -0.62332         7.75289       -10.24578
   C       -2.22729         5.58251       -12.11127
   N       -2.17087         5.43667       -13.24847
   C       -3.09822         5.33246        -8.39337
   C       -2.45499         6.31665        -7.67720
   C       -3.30724         2.89654        12.67264
   O       -3.23093         3.89204        11.97581
   C       -3.07613         2.83864        14.13213
   C       -2.71794         3.86306        14.98476
   C       -2.54811         3.55276        16.32463
   C       -2.73651         2.24849        16.78052
   C       -3.09877         1.22011        15.92230
   C       -3.27034         1.52191        14.58075
   C       -3.63822         0.68437        13.43615
   C       -3.92485        -0.65539        13.50530
   C       -4.29043        -1.47967        12.42081
   N       -4.59104        -2.22142        11.59622
   C       -3.89716        -1.40950        14.69752
   N       -3.88978        -2.08170        15.62807
   C       -3.63996         1.53190        12.26329
   C       -3.88406         1.11647        10.97262
   C       -3.87572         1.82548         9.77055
   S       -3.57821         3.54771         9.56235
   C       -3.74274         3.36552         7.87373
   C       -4.00362         2.04075         7.46542
   C       -4.09733         1.18627         8.53476
   C       -3.69000         4.19241         6.73273
   C       -3.91467         3.40663         5.59552
   C       -4.11895         1.95405         5.96091
   S       -3.45014         5.85368         6.37726
   C       -3.59979         5.50140         4.66953
   C       -3.85009         4.14640         4.43374
   C       -3.42676         6.44709         3.62847
   C       -2.84115         7.49762        -0.07744
   S       -3.53674         6.27640        -1.13090
   C       -2.77794         7.00254        -2.48599
   C       -2.01280         8.11680        -2.13152
   C       -2.04644         8.39262        -0.77314
   C       -2.70258         6.80408        -3.88109
   C       -1.87257         7.80641        -4.42231
   C       -1.36062         8.72927        -3.34398
   S       -3.32437         5.72494        -5.05038
   C       -2.46421         6.60415        -6.31119
   C       -1.73997         7.68900        -5.78208
   C        0.17585         8.69104        -3.24503
   C        0.72651         7.28734        -3.02520
   C       -1.83149        10.17941        -3.56382
   C       -3.34834        10.31438        -3.61100
   C       -5.49785         1.43803         5.51910
   C       -6.64051         2.31256         6.02191
   C       -2.97099         1.13472         5.33194
   C       -2.92479        -0.33239         5.73648
   F       -2.56309         1.97594        18.07922
   F       -2.19781         4.51387        17.18886
   F       -6.53129         0.86576       -10.26086
   F       -5.40762         1.79054       -12.55177
   S       -3.32544         5.82503         2.00004
   C       -3.08098         7.41005         1.32422
   C       -3.13497         8.38302         2.31105
   C       -3.31121         7.83501         3.61727
   C       -3.14605         9.83038         2.05111
   C       -3.35157        10.64867         3.24563
   C       -3.44995        10.09268         4.56117
   C       -3.37435         8.66059         4.81325
   C       -3.48648        12.01538         3.23584
   S       -3.73049        12.62313         4.83793
   C       -3.65687        11.04203         5.53268
   C       -3.40192        12.95934         2.09203
   C       -1.94582        13.35311         1.82556
   C       -3.77765        10.86550         7.00221
   C       -2.39448        10.76271         7.65245
   O       -3.36973         8.19099         5.94785
   O       -3.02990        10.31260         0.93494
   H       -5.81959         2.11304        -8.07745
   H       -3.78822         3.76246       -12.32047
   H       -1.83696         6.99980        -8.24707
   H       -2.57220         4.86949        14.62622
   H       -3.23135         0.23041        16.32698
   H       -4.10330         0.06380        10.84108
   H       -4.31970         0.13510         8.48407
   H       -3.98117         3.75411         3.44028
   H       -1.52316         9.19874        -0.29697
   H       -1.15481         8.33594        -6.41153
   H        0.59032         9.10390        -4.16650
   H        0.48238         9.33486        -2.41859
   H        0.44937         6.62977        -3.84585
   H        1.81146         7.31990        -2.96444
   H        0.34406         6.86254        -2.09985
   H       -1.44296        10.79397        -2.75008
   H       -1.40130        10.54127        -4.49967
   H       -3.78814        10.02586        -2.65945
   H       -3.62123        11.34699        -3.81342
   H       -3.77046         9.68834        -4.39412
   H       -5.52081         1.39975         4.42824
   H       -5.63256         0.42537         5.89981
   H       -6.55297         3.32557         5.63602
   H       -7.59322         1.90241         5.69604
   H       -6.64086         2.35824         7.10859
   H       -3.06811         1.20776         4.24664
   H       -2.02711         1.60866         5.61280
   H       -3.83704        -0.85096         5.45557
   H       -2.09278        -0.81842         5.23213
   H       -2.77593        -0.43493         6.80745
   H       -3.80347        12.47254         1.20166
   H       -3.98791        13.85364         2.31242
   H       -1.36708        12.47225         1.56043
   H       -1.89892        14.06039         1.00231
   H       -1.50561        13.81259         2.70810
   H       -4.32236        11.71067         7.42729
   H       -4.32495         9.94282         7.20540
   H       -1.80012        11.64687         7.43180
   H       -2.50086        10.67118         8.72950
   H       -1.87664         9.88300         7.28037
*
