# ORCA input file
# SCF done       -191.236271553982          0.000673563046
! wb97x-d3 def2-SVP def2/J RIJCOSX Grid4 TightSCF
%maxcore 5000
%tddft
    Mode sTDA
    Ethresh 5.0
    maxcore 5000
end

%pal
  nprocs 6
  end
* xyz -1 2
   C        4.12996        -2.42896         0.02914
   O        3.69402        -2.37991        -1.09703
   C        5.41731        -3.01211         0.47636
   C        6.43590        -3.54430        -0.28819
   C        7.57244        -3.98535         0.37186
   C        7.67129        -3.89265         1.76000
   C        6.64237        -3.36961         2.53013
   C        5.50555        -2.92498         1.87626
   C        4.26247        -2.34346         2.38972
   C        3.81348        -2.46961         3.68081
   C        2.50518        -2.13739         4.08357
   N        1.44710        -1.89050         4.45441
   C        4.58198        -3.00065         4.73539
   N        5.17476        -3.38945         5.63835
   C        3.51427        -1.86437         1.25645
   F        8.78708        -4.31068         2.36873
   C        2.49154        -0.96465         1.10571
   F        8.58904        -4.49973        -0.33081
   C       -0.15543        15.49025         4.88597
   O       -0.69975        14.64798         4.20101
   C        0.17531        16.86232         4.43993
   C        0.01582        17.40786         3.18150
   C        0.42523        18.71777         2.99336
   C        0.97478        19.44863         4.04724
   C        1.12639        18.90230         5.31310
   C        0.71970        17.59149         5.50816
   C        0.74499        16.73207         6.69083
   C        1.05434        17.15006         7.95783
   C        0.97599        16.36468         9.12880
   N        0.91638        15.80917        10.13189
   C        1.45519        18.46569         8.27618
   N        1.79199        19.51449         8.59795
   C        0.31610        15.40466         6.28199
   F        1.37110        20.70823         3.83419
   C        0.50007        14.28608         7.05762
   F        0.29727        19.28602         1.78811
   C        2.01489         0.03861         1.96218
   C        2.54656         0.54048         3.14609
   C        1.83047         1.63366         3.61120
   C        0.74607         2.00117         2.77483
   S        0.60383         0.95922         1.42088
   N        1.91990         2.50310         4.66496
   C        0.94324         3.44993         4.49906
   C        0.20136         3.14960         3.33396
   C        0.54520         4.68366         5.09073
   C       -0.46655         5.28497         4.29901
   S       -1.00681         4.32336         2.94300
   C        0.96085         5.35610         6.26329
   C        0.54521         6.67386         6.42971
   C       -0.35374         7.32403         5.53015
   C       -0.96126         6.55591         4.52575
   S        1.14637         7.76388         7.68772
   C        0.33227         9.08700         6.93941
   C       -0.43096         8.71994         5.81235
   C        0.29988        10.47159         7.03987
   C       -0.47567        10.92325         5.94142
   N       -0.92440         9.85059         5.21539
   S        0.92992        11.77608         7.95744
   C        0.21153        12.93422         6.81611
   C       -0.51773        12.30441         5.81624
   O        1.75178         4.64746         7.10207
   O       -1.98592         7.01633         3.73357
   C        1.92977         5.02817         8.45913
   C        2.44832         3.81609         9.21859
   C       -3.26212         7.00623         4.37155
   C       -3.79271         5.60242         4.62707
   C       -1.65477        10.01853         3.97897
   C       -3.05897        10.56477         4.22677
   C        2.96485         2.41871         5.65541
   C        4.16658         3.27793         5.27188
   H        6.35838        -3.61378        -1.36140
   H        6.76549        -3.31617         3.59967
   H        2.05454        -0.96535         0.11100
   H       -0.40720        16.83769         2.36983
   H        1.55932        19.50819         6.09168
   H        1.01446        14.44593         7.99833
   H        3.44897         0.16412         3.59072
   H       -1.01610        12.85386         5.04038
   H        2.65371         5.84778         8.53092
   H        0.97486         5.35575         8.88396
   H        3.41156         3.50510         8.82359
   H        2.56557         4.07397        10.26675
   H        1.74807         2.98876         9.13549
   H       -3.20548         7.56171         5.31765
   H       -3.91575         7.53858         3.67751
   H       -3.82630         5.03996         3.69779
   H       -4.79558         5.66657         5.03994
   H       -3.15725         5.07250         5.33383
   H       -1.09751        10.72249         3.35208
   H       -1.69960         9.05777         3.46822
   H       -3.61637         9.91279         4.89444
   H       -3.01585        11.55563         4.67072
   H       -3.59163        10.63286         3.28269
   H        2.56541         2.74607         6.61275
   H        3.25561         1.36818         5.73231
   H        3.88034         4.32591         5.23874
   H        4.95786         3.15617         6.00604
   H        4.54896         2.98950         4.29512
*
