# ORCA input file
# SCF done       -216.212165116586          0.000460123677
! wb97x-d3 def2-SVP def2/J RIJCOSX Grid4 TightSCF
%maxcore 5000
%tddft
    Mode sTDA
    Ethresh 5.0
    maxcore 5000
end

%pal
  nprocs 6
  end
* xyz -1 2
   C       -4.74551         2.36983        -2.48632
   O       -4.40581         2.25306        -1.31980
   C       -5.78122         1.58163        -3.17300
   C       -6.58345         0.59992        -2.67021
   C       -7.53070        -0.01587        -3.51964
   C       -7.62175         0.40248        -4.87770
   C       -6.77220         1.42166        -5.36963
   C       -5.86260         2.00572        -4.52983
   C       -4.87969         3.06597        -4.74338
   C       -4.64578         3.69176        -5.94384
   C       -3.69087         4.70086        -6.17749
   N       -2.93696         5.52348        -6.45461
   C       -5.33801         3.39734        -7.13584
   N       -5.86074         3.21202        -8.14177
   C       -4.21793         3.30837        -3.47937
   C       -3.28440         4.28963        -3.23542
   C       -2.15339         8.36616        18.12092
   O       -2.22612         7.24798        17.64510
   C       -2.57083         8.73253        19.48502
   C       -3.12128         7.93306        20.44389
   C       -3.45673         8.49310        21.69678
   C       -3.20758         9.87614        21.92717
   C       -2.63383        10.67732        20.91252
   C       -2.32030        10.11467        19.70383
   C       -1.74371        10.67566        18.48533
   C       -1.41753        11.99986        18.32156
   C       -0.90524        12.61010        17.15825
   N       -0.49724        13.20482        16.26295
   C       -1.56839        12.97947        19.32513
   N       -1.65883        13.83337        20.08818
   C       -1.62912         9.60556        17.50966
   C       -1.08420         9.78244        16.25964
   C       -0.96225         8.92047        15.16181
   S       -0.19332         9.60499        13.71973
   C       -0.46683         8.15091        12.87237
   C       -1.09720         7.17136        13.65993
   C       -1.37999         7.60858        14.93623
   C       -0.30603         7.64729        11.56476
   C       -0.83542         6.35969        11.50268
   C       -1.33582         5.91572        12.85606
   S        0.27044         8.19034        10.04188
   C       -0.21425         6.67220         9.30308
   C       -0.77824         5.81191        10.22684
   C       -0.09759         6.48764         7.87931
   C       -0.22669         5.22777         7.26220
   C       -0.29466         5.15802         5.88503
   C       -0.18859         6.27846         5.06098
   C        0.05950         7.53118         5.67433
   C        0.07956         7.60409         7.05493
   C       -0.38859         6.13606         3.64091
   S       -1.34932         4.78360         3.07083
   C       -1.21508         5.35218         1.45868
   C       -0.44531         6.51007         1.36689
   C        0.01847         6.95128         2.60177
   C       -1.71087         5.01038         0.18311
   C       -1.23687         5.95882        -0.74410
   C       -0.33524         6.96794        -0.06970
   S       -2.77604         3.85676        -0.48844
   C       -2.62402         4.64278        -2.05631
   C       -1.75368         5.74687        -1.99849
   O       -0.32100         4.05482         7.97969
   C        1.13689         6.80733        -0.50944
   C        1.39909         7.08000        -1.98428
   C       -2.81971         5.52001        12.82856
   C       -3.70272         6.59514        12.20566
   O        0.19780         8.60014         4.85125
   C        0.40922         9.89612         5.38288
   C        1.84806        10.12336         5.83632
   C        0.90288         3.59983         8.54108
   C        1.89825         3.13811         7.48343
   C       -0.44038         4.75180        13.33764
   C       -0.73433         4.26062        14.74855
   C       -0.83411         8.40819        -0.25888
   C       -2.23022         8.62449         0.31346
   C       -8.57185        -0.21540        -5.71527
   C       -9.39365        -1.19951        -5.23626
   C       -9.30279        -1.61067        -3.89865
   C       -8.39062        -1.03123        -3.05853
   C       -3.54546        10.42647        23.18010
   C       -4.10344         9.64982        24.15890
   C       -4.34871         8.28783        23.93038
   C       -4.03211         7.72181        22.72524
   H       -6.50018         0.29872        -1.63640
   H       -6.86938         1.71497        -6.40267
   H       -3.02166         4.92444        -4.07314
   H       -3.30097         6.88629        20.24758
   H       -2.45833        11.71978        21.12347
   H       -0.68538        10.77008        16.06107
   H       -1.88070         7.04168        15.69898
   H       -1.16555         4.84819         9.95336
   H       -0.44108         4.18669         5.43705
   H        0.19484         8.55886         7.54325
   H        0.62364         7.82366         2.75486
   H       -1.56302         6.35114        -2.86793
   H        1.74288         7.48261         0.09867
   H        1.44633         5.78492        -0.27819
   H        1.14861         8.10335        -2.24920
   H        2.45430         6.92541        -2.19804
   H        0.82469         6.40337        -2.61038
   H       -2.92198         4.59188        12.26268
   H       -3.14987         5.33822        13.85139
   H       -3.42550         6.77439        11.16917
   H       -4.74357         6.28210        12.23170
   H       -3.61335         7.53082        12.75328
   H        0.17539        10.56444         4.54905
   H       -0.29725        10.10243         6.19509
   H        2.52950         9.94669         5.00784
   H        1.96368        11.14914         6.17450
   H        2.11566         9.45337         6.64927
   H        1.35291         4.38674         9.16164
   H        0.61682         2.76365         9.18381
   H        2.18921         3.97061         6.84597
   H        2.78502         2.73857         7.96740
   H        1.45357         2.36352         6.86391
   H       -0.55847         3.92605        12.63215
   H        0.59964         5.08521        13.28663
   H       -1.73599         3.84703        14.82250
   H       -0.02632         3.47778        15.01159
   H       -0.63423         5.06535        15.47096
   H       -0.13163         9.08655         0.22964
   H       -0.84716         8.63833        -1.32461
   H       -2.24060         8.44602         1.38623
   H       -2.55315         9.64688         0.13203
   H       -2.94523         7.95121        -0.15401
   H       -8.63834         0.10473        -6.74483
   H      -10.11872        -1.66612        -5.88628
   H       -9.95878        -2.38838        -3.53668
   H       -8.31595        -1.34338        -2.02692
   H       -3.35558        11.47605        23.35105
   H       -4.35935        10.08127        25.11510
   H       -4.78961         7.68936        24.71372
   H       -4.21866         6.67336        22.54301
*
