# ORCA input file
# SCF done       -237.560264502714          0.000257967166
! wb97x-d3 def2-SVP def2/J RIJCOSX Grid4 TightSCF
%maxcore 5000
%tddft
    Mode sTDA
    Ethresh 5.0
    maxcore 5000
end

%pal
  nprocs 6
  end
* xyz 1 2
   C        0.98333        -0.46640         0.02643
   C        0.73642         0.84173        -0.45592
   C       -0.57910         1.24933        -0.75416
   C       -1.58547         0.32598        -0.50420
   C       -1.34229        -0.98148        -0.01345
   C       -0.02318        -1.39861         0.26028
   S       -3.28260         0.59464        -0.78693
   C       -3.65795        -1.03366        -0.26046
   C       -2.53974        -1.72725         0.10171
   S        2.67951        -0.70160         0.35973
   C        3.03481         0.95231        -0.09963
   C        1.91653         1.62033        -0.50611
   C        0.28862        -2.71249         0.78485
   C       -0.84270         2.56744        -1.29476
   C        1.36584        -3.49759         0.48470
   C        1.38733        -4.69988         1.22259
   C        0.35453        -4.84247         2.10296
   S       -0.69242        -3.46974         2.01011
   C       -0.13773         3.23215        -2.25734
   C       -0.67118         4.50828        -2.53651
   C       -1.76687         4.83724        -1.79270
   S       -2.17606         3.53443        -0.73069
   C        4.35899         1.46265        -0.01335
   C       -5.00828        -1.47693        -0.23611
   S        4.70510         3.09954        -0.47829
   C        6.38735         2.90664        -0.05006
   C        6.64601         1.62602         0.41776
   C        5.49414         0.82661         0.42978
   C       -6.13216        -0.76575        -0.58439
   C       -7.33308        -1.47161        -0.43403
   C       -7.12468        -2.75895         0.04167
   S       -5.42484        -3.07585         0.29546
   C        7.24678         4.02622        -0.20608
   C       -8.05328        -3.79115         0.33794
   C        6.89658         5.24545        -0.75136
   C        7.91889         6.19702        -0.76570
   C        9.09601         5.70681        -0.21007
   S        8.90524         4.04856         0.30825
   S       -9.77244        -3.61245         0.16454
   C      -10.05030        -5.24442         0.72251
   C       -8.85160        -5.88266         1.02278
   C       -7.74758        -5.05510         0.80200
   C       10.34618         6.33833        -0.00167
   S       10.68724         7.97220        -0.47119
   C       12.31570         7.88286         0.17452
   C       12.54577         6.62559         0.71215
   C       11.45828         5.77426         0.61167
   C       13.10584         9.04240         0.06037
   C       14.36937         9.31875         0.49522
   S       15.04506        10.91227         0.17163
   C       16.53442        10.52549         1.01053
   N       16.47998         9.25813         1.48758
   C       15.33093         8.51875         1.24141
   S       17.78617        11.55843         1.19056
   O       15.21094         7.37554         1.63390
   C       17.58743         8.66559         2.21217
   C       18.64217         8.11692         1.25987
   C        7.78331         7.58527        -1.30536
   C        6.40571         7.90370        -1.87210
   C        8.00418         1.17348         0.85358
   C        8.07613        -0.29790         1.24122
  Cl        0.02020         5.55837        -3.71421
   C       -2.59796         6.07068        -1.85355
   C       -3.82573         5.85930        -2.74266
  Cl        2.62604        -5.87951         1.02568
   C        0.04003        -5.99144         2.99554
   C       -0.97675        -6.93070         2.34187
   C       -8.68904        -0.91876        -0.74194
   C       -8.67446         0.51100        -1.26734
   C       -8.77778        -7.28934         1.52468
   C       -7.36386        -7.77903         1.80955
   C      -11.38520        -5.70961         0.80356
   C      -12.52693        -4.98245         0.49191
   C      -13.70266        -5.69223         0.66522
   C      -13.50778        -6.99136         1.11439
   S      -11.80638        -7.31420         1.32176
   C      -14.50771        -7.94483         1.37353
   C      -14.34859        -9.22484         1.80147
   S      -12.84317       -10.03894         2.15187
   C      -13.69187       -11.52337         2.58217
   N      -15.03000       -11.35918         2.45389
   C      -15.47993       -10.11806         2.02638
   O      -16.65131        -9.84602         1.87848
   C      -15.96898       -12.43300         2.71303
   C      -16.08994       -13.36194         1.51167
   S      -12.93949       -12.88397         3.07611
   H       -2.58767        -2.74796         0.43351
   H        1.93998         2.65465        -0.79689
   H        2.10118        -3.25516        -0.25955
   H        0.70368         2.81804        -2.78145
   H        5.47054        -0.19669         0.75703
   H       -6.06506         0.24730        -0.93641
   H        5.90590         5.42240        -1.12796
   H       -6.72939        -5.35361         0.97175
   H       13.48333         6.35913         1.16254
   H       11.45315         4.76192         0.97617
   H       12.61621         9.85994        -0.45815
   H       17.16460         7.86076         2.81813
   H       18.01911         9.43504         2.85652
   H       18.20621         7.36330         0.60814
   H       19.44617         7.66318         1.83171
   H       19.05516         8.91840         0.65211
   H        8.53737         7.73192        -2.08567
   H        8.01748         8.29578        -0.50569
   H        6.16290         7.23888        -2.69754
   H        6.39253         8.92573        -2.24270
   H        5.63982         7.80927        -1.10608
   H        8.32121         1.78692         1.70363
   H        8.71457         1.36831         0.04355
   H        7.42762        -0.50884         2.08803
   H        9.09547        -0.55079         1.52243
   H        7.78495        -0.93196         0.40715
   H       -1.99032         6.88415        -2.25486
   H       -2.92219         6.34194        -0.84694
   H       -3.51922         5.60119        -3.75348
   H       -4.42169         6.76730        -2.78054
   H       -4.44049         5.05267        -2.34976
   H       -0.36437        -5.62093         3.93969
   H        0.96272        -6.53722         3.20192
   H       -1.90541        -6.40102         2.14107
   H       -1.18847        -7.76956         2.99949
   H       -0.58567        -7.31456         1.40271
   H       -9.29923        -0.96271         0.16626
   H       -9.17360        -1.56863        -1.47801
   H       -8.23996         1.18820        -0.53599
   H       -9.69258         0.83502        -1.46888
   H       -8.10615         0.57796        -2.19191
   H       -9.24651        -7.94979         0.78770
   H       -9.37639        -7.36694         2.43824
   H       -6.75881        -7.76533         0.90613
   H       -7.40241        -8.80081         2.17861
   H       -6.88457        -7.16103         2.56510
   H      -12.48003        -3.96354         0.14997
   H      -14.68229        -5.29200         0.47420
   H      -15.53269        -7.63108         1.21297
   H      -16.92890       -11.95635         2.92547
   H      -15.62057       -12.98531         3.58905
   H      -16.42359       -12.80667         0.63808
   H      -16.81316       -14.14262         1.72777
   H      -15.13048       -13.82532         1.29447
*
