# ORCA input file
# SCF done       -294.246692667198          0.000301644574
! wb97x-d3 def2-SVP def2/J RIJCOSX Grid4 TightSCF
%maxcore 5000
%tddft
    Mode sTDA
    Ethresh 5.0
    maxcore 5000
end

%pal
  nprocs 6
  end
* xyz 1 2
   C        1.35621        -2.29726        -0.36725
   C        0.91574        -2.24589        -1.71234
   C       -0.42067        -2.31564        -2.08281
   C       -1.35278        -2.41880        -1.02973
   C       -0.92012        -2.47471         0.31597
   C        0.42432        -2.40883         0.67981
   C       -2.75992        -2.41839        -1.11759
   C       -3.39991        -2.48741         0.09375
   S       -2.26609        -2.55704         1.42351
   C        2.78039        -2.27060        -0.28738
   C        3.37698        -2.19336        -1.49349
   S        2.26399        -2.14716        -2.81545
   C        0.80795        -2.43684         2.07748
   C       -0.85726        -2.29121        -3.46357
   C       -4.81815        -2.50916         0.23089
   C        0.26012        -3.18194         3.08322
   C        0.83464        -2.92914         4.34449
   C        1.80787        -1.97917         4.31846
   S        2.04726        -1.38568         2.70773
   C       -1.81327        -3.06567        -4.05898
   C       -1.99971        -2.77062        -5.42384
   C       -1.19955        -1.76629        -5.87406
   S       -0.17414        -1.17241        -4.60915
   S       -5.74842        -2.59817        -1.24062
   C       -7.25667        -2.53298        -0.37140
   C       -7.03449        -2.44683         0.97386
   C       -5.66670        -2.44094         1.33013
   C        2.64790        -1.47529         5.44126
   C        4.08867        -1.97754         5.32829
   C       -1.10169        -1.20297        -7.24985
   C        0.20547        -1.61830        -7.92742
   C       -5.24144        -2.38292         2.73002
   O       -4.11460        -2.56564         3.13496
   O       -6.26979        -2.10139         3.54236
   C       -5.98776        -2.04970         4.93940
   C       -5.98055        -3.44006         5.55910
   C      -10.02494        -2.73432        -2.82418
   C      -10.89857        -2.55168        -1.72164
   C      -12.27529        -2.44111        -1.84959
   C      -12.79064        -2.56449        -3.15852
   C      -11.92538        -2.75758        -4.26193
   C      -10.54082        -2.84918        -4.12980
   C      -14.14165        -2.57460        -3.55813
   C      -14.32909        -2.75478        -4.90592
   S      -12.81116        -2.93443        -5.75402
   C       -8.66855        -2.72694        -2.41881
   C       -8.49397        -2.57389        -1.07552
   S      -10.01394        -2.41935        -0.22242
   C       -9.69808        -3.06476        -5.28766
   C      -13.14967        -2.19503        -0.72171
   C      -15.60957        -2.74825        -5.53033
   C       -9.85253        -2.55390        -6.54637
   C       -8.87334        -2.99823        -7.45567
   C       -7.97664        -3.86404        -6.90988
   S       -8.32330        -4.13592        -5.23452
   C      -14.21523        -1.34153        -0.65209
   C      -14.84830        -1.34107         0.60633
   C      -14.27962        -2.19712         1.49823
   S      -12.92408        -3.01778         0.79585
   S      -16.96635        -2.28018        -4.54070
   C      -18.08711        -2.49694        -5.85662
   C      -17.43493        -2.91728        -6.98130
   C      -16.03872        -3.05730        -6.81609
   C       -6.80183        -4.51672        -7.55302
   C       -5.48378        -3.95667        -7.01457
   C      -14.65478        -2.44214         2.91907
   C      -13.63145        -1.82670         3.87556
   C      -15.17725        -3.48349        -7.92158
   O      -13.96701        -3.43593        -7.93325
   O      -15.89841        -3.94569        -8.95145
   C      -15.17331        -4.36854       -10.10499
   C      -14.79373        -3.18933       -10.98937
   C      -21.47329        -1.55344        -4.68741
   C      -21.91637        -1.89061        -5.99110
   C      -23.23501        -1.76881        -6.39992
   C      -24.15121        -1.31919        -5.43215
   C      -23.72272        -1.02332        -4.11749
   C      -22.39129        -1.10223        -3.71730
   C      -25.54715        -1.15145        -5.59168
   C      -26.18843        -0.77407        -4.45159
   S      -25.07184        -0.54522        -3.12041
   C      -20.08115        -1.76857        -4.54400
   C      -19.47268        -2.21891        -5.67823
   S      -20.60005        -2.42570        -7.00093
   C      -21.98826        -0.72356        -2.37822
   C      -23.69512        -2.13244        -7.72853
   C      -27.59420        -0.57627        -4.27394
   C      -22.65167        -0.94255        -1.20336
   C      -21.99881        -0.39504        -0.08158
   C      -20.84686         0.26054        -0.38916
   S      -20.53623         0.19739        -2.09232
   C      -24.48351        -1.41651        -8.58127
   C      -24.81466        -2.12130        -9.75689
   C      -24.29040        -3.37572        -9.80084
   S      -23.35110        -3.70888        -8.38205
   S      -28.19455         0.47377        -3.02942
   C      -29.81392         0.24510        -3.55449
   C      -29.89376        -0.58047        -4.62760
   C      -28.63170        -1.07188        -5.03928
   C      -19.88996         0.94343         0.52584
   C      -18.54877         0.21014         0.58636
   C      -24.49140        -4.42914       -10.83498
   C      -25.57743        -5.41774       -10.40221
   C      -28.50285        -2.02584        -6.16473
   O      -29.06845        -1.90071        -7.22176
   O      -27.69417        -3.04750        -5.85940
   C      -27.40588        -3.98286        -6.89993
   C      -28.48124        -5.05268        -7.01239
   H       -3.29417        -2.33413        -2.04702
   H        3.32591        -2.32002         0.63649
   H        4.42741        -2.16073        -1.70767
   H       -0.51257        -3.91104         2.92242
   H        0.52849        -3.43343         5.24405
   H       -2.33709        -3.85139        -3.54435
   H       -2.70887        -3.28458        -6.04818
   H       -7.82691        -2.39747         1.69819
   H        2.21204        -1.81475         6.38333
   H        2.64973        -0.38226         5.43903
   H        4.11116        -3.06505         5.33183
   H        4.68277        -1.61404         6.16317
   H        4.53726        -1.62542         4.40211
   H       -1.14937        -0.11200        -7.20484
   H       -1.95173        -1.55896        -7.83614
   H        1.05593        -1.26141        -7.35109
   H        0.26198        -1.19984        -8.92929
   H        0.26704        -2.70194        -7.99764
   H       -6.78304        -1.43281         5.36317
   H       -5.01736        -1.56458         5.08897
   H       -6.92652        -3.94165         5.36912
   H       -5.82891        -3.35985         6.63167
   H       -5.17395        -4.03113         5.13242
   H      -14.96382        -2.48440        -2.87099
   H       -7.83600        -2.81850        -3.09199
   H      -10.62567        -1.85528        -6.80808
   H       -8.84024        -2.68802        -8.48512
   H      -14.50927        -0.70065        -1.46404
   H      -15.70037        -0.72734         0.83875
   H      -17.93505        -3.11363        -7.91213
   H       -6.85894        -4.35354        -8.63138
   H       -6.83240        -5.59379        -7.36834
   H       -5.42519        -2.88518        -7.19467
   H       -4.64360        -4.44136        -7.50686
   H       -5.41144        -4.13115        -5.94315
   H      -14.71439        -3.51756         3.10388
   H      -15.63994        -2.00770         3.10241
   H      -12.64901        -2.25974         3.70225
   H      -13.91853        -2.01303         4.90749
   H      -13.56689        -0.75219         3.71975
   H      -15.84882        -5.05097       -10.62505
   H      -14.27396        -4.90435        -9.78341
   H      -15.68156        -2.62598       -11.26696
   H      -14.30630        -3.55202       -11.88970
   H      -14.10897        -2.53306       -10.45784
   H      -26.04657        -1.30029        -6.52950
   H      -19.53424        -1.60657        -3.63327
   H      -23.56133        -1.51108        -1.13608
   H      -22.37684        -0.48240         0.92166
   H      -24.79059        -0.40396        -8.38678
   H      -25.42394        -1.70883       -10.54164
   H      -30.61013         0.74113        -3.03662
   H      -30.81092        -0.85532        -5.11573
   H      -20.33244         0.98796         1.52325
   H      -19.72007         1.96734         0.18204
   H      -18.68973        -0.81064         0.93579
   H      -17.87395         0.72376         1.26736
   H      -18.09316         0.17751        -0.40113
   H      -23.55687        -4.97031       -10.99743
   H      -24.78272        -3.95374       -11.77392
   H      -25.29624        -5.89981        -9.46847
   H      -25.71566        -6.18276       -11.16200
   H      -26.52221        -4.89977       -10.25310
   H      -26.44099        -4.41623        -6.62678
   H      -27.31229        -3.44034        -7.84748
   H      -28.60798        -5.55899        -6.05860
   H      -28.19332        -5.77981        -7.76647
   H      -29.42628        -4.59936        -7.30127
*
