# ORCA input file
# SCF done       -514.705073991220          0.000279563461
! wb97x-d3 def2-SVP def2/J RIJCOSX Grid4 TightSCF
%maxcore 5000
%tddft
    Mode sTDA
    Ethresh 5.0
    maxcore 5000
end

%pal
  nprocs 6
  end
* xyz 1 2
   C       19.63856        17.87650         4.77179
   C       20.06762        17.32802         3.54071
   C       19.40534        16.28531         2.89666
   C       18.28416        15.75289         3.56157
   C       17.85731        16.29946         4.79686
   C       18.49098        17.37303         5.41118
   C       20.50101        18.92513         5.20855
   C       21.50374        19.17636         4.34340
   S       21.48141        18.15732         2.94707
   C       17.46051        14.67601         3.15606
   C       16.42513        14.42118         4.00587
   S       16.42691        15.49502         5.38814
   C       19.84100        15.79496         1.60476
   C       17.98919        17.97060         6.63381
   C       15.40895        13.44078         3.82534
   C       14.33834        13.13532         4.63648
   C       13.50511        12.15078         4.10243
   C       13.93131        11.69204         2.87477
   S       15.39329        12.48037         2.37759
   C       17.85453        19.29837         6.92304
   C       17.31843        19.50555         8.20914
   C       17.04984        18.37390         8.91944
   S       17.45555        16.98666         7.96795
   C       16.46212        18.25158        10.28250
   C       15.06353        17.63499        10.23188
   C       21.11967        15.62371         1.15386
   C       21.15484        15.14794        -0.17106
   C       19.93986        14.96592        -0.76227
   S       18.69176        15.38965         0.35605
   C       19.63392        14.45237        -2.12672
   C       18.86203        13.13297        -2.07182
   C       13.29541        10.75683         2.01471
   N       12.17253        10.17464         2.25620
   C       11.74770         9.40107         1.22995
   C       12.61747         9.38660         0.10638
   S       14.00585        10.37484         0.43875
   C       10.52245         8.69784         1.22057
   C       10.22650         8.05978         0.01606
   C       11.10048         8.04180        -1.10432
   C       12.35192         8.69372        -1.07281
   S        8.76069         7.21778        -0.38832
   C        9.41147         6.96228        -2.01439
   N       10.60272         7.41859        -2.19637
   C        9.66246         8.68461         2.37318
   C        9.96155         9.07819         3.65424
   C        8.89065         8.93170         4.54986
   C        7.76129         8.43184         3.97211
   S        8.01329         8.12033         2.28919
   C        6.45298         8.11390         4.60856
   C        6.25348         6.60240         4.74015
   C       13.24388         8.65166        -2.20076
   C       13.21776         7.78828        -3.26675
   C       14.24071         8.02091        -4.20096
   C       15.05494         9.06259        -3.86951
   S       14.56744         9.77528        -2.36935
   C       16.23908         9.59174        -4.60247
   C       17.52150         9.44021        -3.78297
   C        8.61445         6.39724        -3.04660
   S        6.93359         6.05105        -2.79685
   C        6.72663         5.67263        -4.48157
   C        7.91934         5.77748        -5.16408
   C        8.98221         6.18391        -4.35801
   F       17.09535        20.73969         8.69936
   F       22.31292        14.88995        -0.80633
   C        3.10018         5.39229        -5.15620
   C        3.44303         5.44865        -6.52978
   C        2.50760         5.58902        -7.54926
   C        1.15946         5.68804        -7.15154
   C        0.81240         5.59378        -5.78084
   C        1.74772         5.44294        -4.76519
   C        4.24783         5.37312        -4.32729
   C        5.42365         5.45870        -5.01430
   S        5.17212         5.46864        -6.74917
   C        0.03223         5.97086        -7.95600
   C       -1.12143         6.15017        -7.24891
   S       -0.89485         5.86065        -5.53706
   C        2.92964         5.70358        -8.93150
   C        1.35587         5.40267        -3.36885
   C       -2.33366         6.69947        -7.75456
   C       -3.49644         7.01268        -7.08495
   C       -4.38202         7.77980        -7.84481
   C       -3.90698         8.05873        -9.10796
   S       -2.36223         7.31753        -9.37921
   C        1.88889         6.07908        -2.30984
   C        1.22238         5.77908        -1.10501
   C        0.20087         4.88292        -1.20845
   S        0.03268         4.39025        -2.85810
   C       -0.70467         4.37956        -0.13845
   C       -2.14328         4.84773        -0.36112
   C        3.92100         5.00343        -9.55937
   C        4.09016         5.40892       -10.89748
   C        3.27161         6.41677       -11.31278
   S        2.23668         6.88576       -10.00983
   C        3.18393         7.05497       -12.65601
   C        1.79551         6.88299       -13.27287
   C       -4.41304         8.98276       -10.06248
   N       -5.36132         9.82550        -9.84151
   C       -5.48475        10.74886       -10.82379
   C       -4.56924        10.59109       -11.89887
   S       -3.58482         9.18915       -11.61458
   C       -6.36283        11.85373       -10.76168
   C       -6.17424        12.80174       -11.76756
   C       -5.26047        12.64070       -12.84366
   C       -4.45570        11.48585       -12.96158
   S       -6.92068        14.36764       -11.87854
   C       -5.91707        14.69255       -13.29932
   N       -5.16743        13.71058       -13.66570
   C       -7.32799        11.97725        -9.70368
   C       -7.72885        11.01214        -8.81264
   C       -8.70365        11.45720        -7.90609
   C       -9.05938        12.76135        -8.08504
   S       -8.18836        13.46507        -9.40374
   C      -10.07245        13.56052        -7.34147
   C      -11.31808        13.80971        -8.19471
   C       -3.55854        11.30972       -14.07145
   C       -3.51937        12.01738       -15.24716
   C       -2.50880        11.59261       -16.12473
   C       -1.76620        10.55736       -15.63981
   S       -2.31515        10.08542       -14.06795
   C       -0.60044         9.87106       -16.26345
   C        0.69964        10.20950       -15.53080
   C       -5.87807        15.98159       -13.89796
   S       -6.59674        17.35402       -13.11745
   C       -5.92747        18.42610       -14.31148
   C       -5.22467        17.72653       -15.26870
   C       -5.19187        16.35223       -15.03437
   F        1.57782         6.33956         0.06590
   F        5.00014         4.83648       -11.70731
   C       -6.47677        21.92273       -13.22339
   C       -5.72425        22.30576       -14.36068
   C       -5.36627        23.62183       -14.63657
   C       -5.80295        24.59874       -13.71843
   C       -6.56740        24.21489       -12.58819
   C       -6.90869        22.89837       -12.30431
   C       -6.66228        20.52074       -13.15887
   C       -6.04490        19.83717       -14.16532
   S       -5.24395        20.91301       -15.29362
   C       -5.56646        25.99414       -13.74155
   C       -6.08276        26.65794       -12.66428
   S       -6.93359        25.58372       -11.57703
   C       -4.54917        23.93630       -15.79141
   C       -7.63914        22.53671       -11.10516
   C       -5.96302        28.04371       -12.35444
   C       -5.29136        29.01889       -13.06380
   C       -5.32362        30.26896       -12.44939
   C       -6.02209        30.26994       -11.25897
   S       -6.65630        28.69685       -10.90168
   C       -7.39267        21.50894       -10.24007
   C       -8.31622        21.48339        -9.17677
   C       -9.27169        22.45505        -9.20854
   S       -9.02563        23.45995       -10.59440
   C      -10.36376        22.71588        -8.23013
   C      -10.14385        24.03677        -7.49141
   C       -4.61650        23.37936       -17.03728
   C       -3.62185        23.88208       -17.89800
   C       -2.77676        24.79773       -17.34593
   S       -3.22876        25.07174       -15.69859
   C       -1.64500        25.52317       -17.98731
   C       -1.91313        27.02653       -18.06508
   C       -6.20475        31.37177       -10.38509
   N       -5.67622        32.54741       -10.58294
   C       -6.00820        33.35103        -9.56858
   C       -6.79489        32.83504        -8.57541
   S       -7.18627        31.20527        -8.89080
   C       -5.90105        34.72579        -8.95069
   C       -7.09153        35.60455        -9.23533
   C       -7.90127        35.08186        -8.26746
   C       -6.87735        34.09597        -7.75480
   S       -7.90611        36.80821       -10.13184
   C       -9.31811        36.49088        -9.06269
   N       -9.14325        35.56826        -8.16450
   C       -4.59574        35.27732        -8.62408
   C       -3.37355        34.69402        -8.77931
   C       -2.32653        35.47099        -8.24154
   C       -2.74831        36.62761        -7.66339
   S       -4.47199        36.79155        -7.78019
   C       -1.93173        37.69974        -7.02812
   C       -1.85807        38.94343        -7.91615
   C       -6.46416        34.13314        -6.36109
   C       -6.84480        35.01648        -5.39511
   C       -6.15531        34.82566        -4.17981
   C       -5.24291        33.81782        -4.22404
   S       -5.21952        33.06475        -5.78695
   C       -4.37057        33.30719        -3.12944
   C       -4.92086        32.00340        -2.54692
   C      -10.51540        37.23292        -9.23709
   S      -11.87913        36.94787        -8.19972
   C      -12.78753        38.14709        -9.02527
   C      -12.08642        38.73079       -10.03645
   C      -10.78776        38.21207       -10.16146
   F       -8.25665        20.55774        -8.20142
   F       -3.51423        23.47941       -19.17740
   H       20.37627        19.44428         6.14060
   H       22.28571        19.90471         4.43330
   H       17.62040        14.09265         2.26835
   H       14.17165        13.62448         5.57991
   H       12.61214        11.78338         4.57309
   H       18.08137        20.09776         6.24231
   H       16.41381        19.24809        10.72665
   H       17.10843        17.62748        10.90510
   H       14.39828        18.25301         9.63334
   H       14.65363        17.55375        11.23513
   H       15.10608        16.64226         9.78922
   H       22.00409        15.78664         1.74043
   H       20.57761        14.31118        -2.65798
   H       19.04106        15.19238        -2.67143
   H       19.44027        12.37571        -1.54729
   H       18.65784        12.77771        -3.07839
   H       17.91609        13.26854        -1.55187
   H       10.92872         9.45455         3.92746
   H        8.95115         9.18994         5.59279
   H        5.64082         8.52838         4.00630
   H        6.41997         8.57825         5.59656
   H        6.27328         6.13527         3.75828
   H        5.29634         6.38784         5.20875
   H        7.04471         6.16744         5.34679
   H       12.48376         7.01049        -3.35749
   H       14.37116         7.43468        -5.09389
   H       16.08485        10.65056        -4.82913
   H       16.33519         9.05248        -5.54729
   H       17.43785         9.99203        -2.84935
   H       18.37366         9.82213        -4.33983
   H       17.69973         8.39280        -3.55058
   H        7.99831         5.58507        -6.21947
   H        9.98536         6.34972        -4.70410
   H        4.21316         5.32024        -3.25476
   H        0.06383         6.08485        -9.02354
   H       -3.67163         6.71920        -6.06497
   H       -5.32405         8.15470        -7.48991
   H        2.68579         6.79609        -2.37709
   H       -0.33749         4.74610         0.82249
   H       -0.68019         3.28674        -0.12232
   H       -2.19234         5.93417        -0.36305
   H       -2.78634         4.47204         0.43037
   H       -2.51382         4.48268        -1.31649
   H        4.48577         4.20716        -9.11185
   H        3.93941         6.59933       -13.29983
   H        3.40770         8.12209       -12.56886
   H        1.55264         5.82767       -13.37354
   H        1.76516         7.34114       -14.25771
   H        1.04102         7.35361       -12.64597
   H       -7.32716        10.01698        -8.82477
   H       -9.13037        10.83240        -7.14088
   H       -9.64115        14.52217        -7.05256
   H      -10.34886        13.02112        -6.43295
   H      -11.05135        14.35714        -9.09579
   H      -12.04760        14.39117        -7.63655
   H      -11.77307        12.86542        -8.48535
   H       -4.20530        12.81510       -15.45873
   H       -2.33810        12.03614       -17.09023
   H       -0.52739        10.17987       -17.30836
   H       -0.75421         8.78911       -16.23517
   H        0.88061        11.28158       -15.55823
   H        1.54048         9.70342       -15.99919
   H        0.63563         9.89671       -14.49112
   H       -4.73564        18.21228       -16.09453
   H       -4.67579        15.63888       -15.64941
   H       -7.22996        20.02547       -12.39265
   H       -5.02990        26.49263       -14.52597
   H       -4.78882        28.82424       -13.99342
   H       -4.85849        31.15682       -12.83548
   H       -6.56768        20.82565       -10.31863
   H      -10.39064        21.88938        -7.51679
   H      -11.32300        22.75115        -8.75318
   H       -9.20228        24.01496        -6.94765
   H      -10.95019        24.20847        -6.78326
   H      -10.11610        24.86355        -8.19771
   H       -5.35847        22.66981       -17.35180
   H       -1.50458        25.11729       -18.99133
   H       -0.72900        25.35063       -17.41572
   H       -2.81429        27.22219       -18.64177
   H       -1.07832        27.53138       -18.54383
   H       -2.04302        27.43783       -17.06632
   H       -3.23609        33.74874        -9.27273
   H       -1.29274        35.17604        -8.27874
   H       -0.92567        37.31396        -6.85024
   H       -2.36959        37.97311        -6.06485
   H       -1.41449        38.69545        -8.87769
   H       -1.25313        39.71136        -7.44060
   H       -2.85542        39.34162        -8.08817
   H       -7.60130        35.76410        -5.55197
   H       -6.32897        35.42240        -3.30188
   H       -4.31229        34.06452        -2.34469
   H       -3.36282        33.13134        -3.51332
   H       -5.91953        32.16088        -2.14591
   H       -4.27638        31.64570        -1.74785
   H       -4.97538        31.23980        -3.31950
   H      -13.79264        38.35265        -8.71474
   H      -12.48399        39.50356       -10.66936
   H      -10.07298        38.53641       -10.89654
*
