# ORCA input file
# SCF done       -403.093533049761          0.000921194079
! wb97x-d3 def2-SVP def2/J RIJCOSX Grid4 TightSCF
%maxcore 5000
%tddft
    Mode sTDA
    Ethresh 5.0
    maxcore 5000
end

%pal
  nprocs 6
  end
* xyz 1 2
   C        5.01160        -6.91955        -4.94741
   S        4.84206        -5.99795        -3.49410
   C        6.21484        -5.01070        -3.92525
   C        6.73498        -5.39384        -5.18260
   C        6.03042        -6.50772        -5.72769
   C        6.73036        -3.96243        -3.16438
   C        7.85493        -3.30167        -3.69918
   C        8.37253        -3.68663        -4.95827
   C        7.82627        -4.70025        -5.73859
   C        8.33540        -5.01634        -7.05553
   C        7.63889        -5.31292        -8.19496
   C        8.45386        -5.54168        -9.31649
   C        9.78575        -5.42459        -9.03392
   S       10.05193        -5.02742        -7.36520
   S       11.09199        -5.65192       -10.16669
   C       12.51788        -5.10010        -9.15612
   C        6.12543        -3.57616        -1.90891
   C        5.57557        -4.38356        -0.95179
   C        5.02184        -3.68789         0.13771
   C        5.13519        -2.33313         0.00804
   S        5.94272        -1.89472        -1.46157
   S        4.61707        -1.04436         1.06540
   C        3.89577        -1.98772         2.46179
   C        8.61033        -2.25277        -3.12381
   C        9.64414        -1.81004        -3.90054
   S        9.73611        -2.70050        -5.40605
   C       10.55537        -0.76952        -3.55208
   C       11.61607        -0.20804        -4.24570
   C       12.24673         0.81035        -3.51822
   C       11.68672         1.04907        -2.28309
   S       10.34835        -0.01238        -1.99275
   C       12.09555        -0.61859        -5.60277
   C       13.06002        -1.80281        -5.51622
   C       12.07991         2.02447        -1.33457
   S       11.19215         2.21028         0.20174
   C       12.26793         3.49401         0.58532
   C       13.19273         3.66465        -0.45714
   N       13.07387         2.84704        -1.50382
   N       12.37630         4.31867         1.62593
   C       13.36139         5.15197         1.45511
   S       14.26348         4.95473        -0.07142
   C       13.68935         6.15770         2.39597
   S       14.99829         7.26894         2.17114
   C       14.62931         8.06418         3.68041
   C       13.54112         7.47635         4.31211
   C       13.02491         6.40259         3.57864
   C       12.99325         7.94507         5.62497
   C       11.83067         7.11008         6.14609
   C       13.77987        -5.11933        -9.99449
   C        3.41023        -1.01583         3.51958
   C       15.43156         9.17596         4.06692
   S       15.07826        10.15089         5.48219
   C       16.45130        11.17731         5.17576
   C       17.13106        10.77967         3.99984
   C       16.54071         9.63622         3.41276
   C       16.82735        12.27202         5.94834
   C       17.98162        12.96165         5.52680
   C       18.67192        12.55833         4.35839
   C       18.25757        11.50234         3.55297
   C       18.91128        11.17196         2.30633
   C       18.33104        10.81734         1.11949
   C       19.25077        10.57385         0.08406
   C       20.54602        10.73841         0.48554
   S       20.65057        11.21134         2.15111
   S       22.03712        10.55429        -0.40205
   C       21.41782        10.05086        -2.05288
   C       16.05199        12.68253         7.09916
   C       15.41260        11.89357         8.01395
   C       14.69856        12.60934         8.99273
   C       14.77892        13.96068         8.81776
   S       15.74895        14.37136         7.44060
   S       14.09050        15.27024         9.74563
   C       13.18425        14.35463        11.04873
   C       18.60012        14.07520         6.14659
   C       19.69615        14.53749         5.48080
   S       20.04370        13.58753         4.04990
   C       20.51879        15.65594         5.82531
   C       20.13772        16.84132         6.43419
   C       21.22550        17.70527         6.61614
   C       22.42367        17.19758         6.16304
   S       22.22038        15.62244         5.47163
   C       18.72576        17.17488         6.81031
   C       18.41748        18.66634         6.71800
   C       23.68544        17.83703         6.25292
   S       25.19701        16.98578         5.84166
   C       26.04177        18.41656         6.28654
   C       25.12356        19.39929         6.68824
   N       23.83455        19.06096         6.66843
   N       27.33240        18.74989         6.32692
   C       27.47913        19.97452         6.74011
   S       25.96339        20.83380         7.12385
   C       28.73705        20.60144         6.91723
   S       28.87451        22.28027         7.31728
   C       30.61383        22.16177         7.36705
   C       31.04506        20.87238         7.08807
   C       29.97641        20.00594         6.82683
   C       32.48889        20.47322         7.07157
   C       32.73010        19.03730         6.62409
   C       22.59653         9.84152        -2.98334
   C       12.50141        15.34562        11.97105
   C       31.35272        23.34031         7.67516
   S       33.06141        23.31527         8.06372
   C       33.07602        25.04149         8.30549
   C       31.78989        25.59534         8.09802
   C       30.84484        24.60855         7.73728
   C       34.20423        25.79906         8.60208
   C       34.00675        27.19164         8.72183
   C       32.72345        27.74516         8.50121
   C       31.59451        26.98853         8.20703
   C       30.29133        27.58782         8.03165
   C       29.07017        27.13729         8.45491
   C       28.00419        27.99131         8.12800
   C       28.40807        29.10351         7.44349
   S       30.12560        29.11091         7.19510
   S       27.36834        30.37787         6.86484
   C       28.60705        31.55753         6.20624
   C       35.51374        25.21048         8.76407
   C       36.72366        25.68484         8.33368
   C       37.80764        24.85203         8.65350
   C       37.42931        23.73180         9.33997
   S       35.71242        23.68691         9.59191
   S       38.50404        22.48262         9.90807
   C       37.31047        21.31275        10.65914
   C       34.94625        28.17924         9.09717
   C       34.43956        29.44906         9.14498
   S       32.73912        29.47190         8.72498
   C       35.17187        30.62787         9.47104
   C       34.76884        31.94744         9.60373
   C       35.83282        32.79605         9.93684
   C       37.04477        32.15626        10.06813
   S       36.88490        30.45746         9.77049
   C       33.38353        32.47410         9.39620
   C       33.12565        32.78494         7.92053
   C       38.28462        32.75070        10.40840
   S       39.76564        31.77224        10.58011
   C       40.59586        33.22630        10.96897
   C       39.70022        34.30538        10.93393
   N       38.43386        34.02479        10.62430
   N       41.86154        33.50747        11.28389
   C       42.01036        34.77984        11.50206
   S       40.53148        35.75887        11.32447
   C       43.25030        35.37053        11.86311
   S       43.41794        37.07763        12.13314
   C       45.08488        36.88014        12.48826
   C       45.50095        35.58226        12.40486
   C       44.44624        34.71899        12.04748
   C       46.89123        35.11703        12.70439
   C       46.96612        34.50886        14.10574
   C       27.91026        32.80209         5.69501
   C       38.04961        20.10570        11.20074
   H        4.33305        -7.73164        -5.12098
   H        6.30108        -6.98446        -6.65154
   H        6.56448        -5.31535        -8.23938
   H        8.08285        -5.77363       -10.29770
   H       12.59519        -5.77756        -8.30500
   H       12.28987        -4.09487        -8.79988
   H        5.59718        -5.45702        -1.00131
   H        4.56243        -4.18170         0.97343
   H        4.67616        -2.63976         2.85403
   H        3.07345        -2.58382         2.06623
   H        8.41237        -1.83609        -2.15320
   H       13.08898         1.37372        -3.87647
   H       12.60999         0.22986        -6.05777
   H       11.24979        -0.88322        -6.23916
   H       13.91623        -1.54721        -4.89622
   H       13.41533        -2.06882        -6.50864
   H       12.56535        -2.66884        -5.08432
   H       12.18613         5.80103         3.87178
   H       12.66954         8.98519         5.51850
   H       13.80047         7.93953         6.36369
   H       10.99182         7.13975         5.45530
   H       11.49845         7.50653         7.10268
   H       12.13166         6.07541         6.29074
   H       13.97623        -6.12262       -10.36489
   H       14.62581        -4.79769        -9.39117
   H       13.68225        -4.45036       -10.84619
   H        4.23513        -0.40926         3.88572
   H        2.98079        -1.56420         4.35520
   H        2.65160        -0.35386         3.10863
   H       16.93689         9.14337         2.54365
   H       17.26658        10.77717         0.97278
   H       18.95225        10.29470        -0.90914
   H       20.76651        10.84598        -2.41551
   H       20.84872         9.13040        -1.92340
   H       15.47948        10.82087         8.01613
   H       14.15579        12.13077         9.78634
   H       13.91124        13.74885        11.58966
   H       12.45727        13.71198        10.55216
   H       18.27880        14.48222         7.08544
   H       21.17034        18.67733         7.06808
   H       18.53602        16.83504         7.83319
   H       18.04753        16.62477         6.15410
   H       18.96700        19.23001         7.46675
   H       17.35520        18.82922         6.88323
   H       18.67743        19.04896         5.73398
   H       30.07154        18.96506         6.58367
   H       32.90081        20.61169         8.07651
   H       33.03415        21.15365         6.41052
   H       32.25697        18.33387         7.30471
   H       33.79832        18.83385         6.61221
   H       32.33988        18.87465         5.62241
   H       23.17040        10.75984        -3.08228
   H       22.24141         9.54269        -3.96719
   H       23.25268         9.06509        -2.59727
   H       13.23561        15.99306        12.44450
   H       11.95412        14.81230        12.74512
   H       11.80378        15.96585        11.41341
   H       29.82080        24.82466         7.49333
   H       28.94478        26.23893         9.03216
   H       26.97859        27.80574         8.38830
   H       29.14838        31.04867         5.40789
   H       29.29524        31.79051         7.01970
   H       36.82788        26.58739         7.75881
   H       38.82841        25.05855         8.38998
   H       36.60056        21.03033         9.88070
   H       36.78642        21.84761        11.45200
   H       35.96637        27.96181         9.35671
   H       35.73447        33.85557        10.08742
   H       33.27338        33.39042         9.97916
   H       32.64499        31.75461         9.75249
   H       33.85467        33.50414         7.55410
   H       32.13018        33.20339         7.79543
   H       33.19755        31.88179         7.31998
   H       45.67159        37.74240        12.73767
   H       44.54225        33.65649        11.92154
   H       47.58217        35.95873        12.63347
   H       47.18559        34.36645        11.96817
   H       46.68628        35.24727        14.85367
   H       47.97662        34.16727        14.31601
   H       46.28850        33.66261        14.18894
   H       27.21275        32.54874         4.90023
   H       28.64688        33.50066         5.30439
   H       27.35824        33.28669         6.49686
   H       38.58916        19.59979        10.40356
   H       37.34042        19.40835        11.64101
   H       38.76383        20.40660        11.96356
*
