# ORCA input file
# SCF done       -444.480030517466          0.000492320962
! wb97x-d3 def2-SVP def2/J RIJCOSX Grid4 TightSCF
%maxcore 5000
%tddft
    Mode sTDA
    Ethresh 5.0
    maxcore 5000
end

%pal
  nprocs 6
  end
* xyz 1 2
   C        0.78976         6.11620        -4.14834
   C       -0.55402         6.34033        -3.81619
   C       -0.92744         6.57738        -2.47133
   C       -0.01784         6.61349        -1.42569
   C        1.32343         6.35965        -1.75408
   C        1.69579         6.11722        -3.09948
   C       -1.68545         6.35425        -4.68588
   C       -2.84040         6.61273        -4.04086
   S       -2.64740         6.85027        -2.33632
   C        2.43455         6.29020        -0.87767
   C        3.61859         6.04594        -1.50937
   S        3.41782         5.87043        -3.24565
   C        1.21882         5.90238        -5.53819
   C       -0.41072         6.91726        -0.04329
   C        4.90149         5.93029        -0.90640
   C        6.11614         5.75241        -1.53912
   C        7.17390         5.68751        -0.64559
   C        6.79776         5.80634         0.68629
   S        5.07266         6.00797         0.81879
   C        7.70894         5.75977         1.76950
   S        9.40137         5.58720         1.36751
   C        9.89146         5.56111         3.04415
   C        8.77954         5.69015         3.86937
   C        7.54812         5.81253         3.14985
   C        8.84145         5.69051         5.31854
   C        7.56251         5.90041         5.98833
   C        6.33116         6.02508         5.27020
   C        6.26626         5.96857         3.81256
   C        7.40760         6.02497         7.34699
   S        5.74554         6.28596         7.75048
   C        5.25260         6.24004         6.09236
   C       11.27573         5.41618         3.30562
   C       12.25327         5.37440         2.31940
   C       13.53910         5.19218         2.80526
   S       11.99007         5.22852         4.88241
   O        9.88410         5.52319         5.94843
   O        5.20174         6.06022         3.20433
   C        8.43500         5.94652         8.41808
   C        8.77072         4.49262         8.76201
   C        3.81696         6.38219         5.73627
   C        3.16910         5.00947         5.53334
   C       13.57069         5.08108         4.18158
   C       -1.43406         6.21370         0.58346
   C       -1.77686         6.49502         1.89223
   C       -1.11849         7.48822         2.60526
   C       -0.10753         8.20034         1.97108
   C        0.24472         7.92095         0.66614
   C        0.89060         6.82069        -6.53121
   C        1.30775         6.62259        -7.83306
   C        2.05500         5.50411        -8.18076
   C        2.38182         4.59055        -7.18676
   C        1.97310         4.78477        -5.88183
   C       -1.44779         7.75523         4.04579
   C       -0.50162         6.97265         4.95912
   C        2.54422         5.31503        -9.58769
   C        3.90854         5.98287        -9.77175
   C       16.25306         4.12942         8.27635
   C       15.94583         4.40396         6.93254
   C       16.97123         4.42936         5.95369
   C       18.30486         4.20060         6.24845
   C       18.61714         3.95629         7.59682
   C       17.58890         3.91995         8.57365
   C       14.67492         4.67048         6.37178
   C       14.69590         4.84861         5.01832
   S       16.31902         4.72670         4.36088
   C       19.89283         3.72158         8.16429
   C       19.86026         3.46434         9.50453
   S       18.22806         3.52921        10.15022
   C       15.19370         4.06610         9.29263
   C       19.33606         4.17591         5.20224
   C       20.96251         3.15111        10.34723
   C       20.91694         2.69248        11.64938
   C       22.17789         2.43972        12.16706
   C       23.21566         2.72081        11.28831
   S       22.59276         3.31851         9.77556
   C       24.58381         2.50734        11.58898
   S       24.94307         1.65570        13.07249
   C       26.66923         1.76159        12.82235
   C       26.94001         2.44626        11.64207
   C       25.76217         2.85329        10.93830
   C       28.27683         2.74539        11.16547
   C       28.33150         3.50107         9.91871
   C       27.15379         3.90833         9.21538
   C       25.81115         3.55935         9.67068
   C       29.49129         3.89505         9.29788
   S       29.13985         4.79856         7.86493
   C       27.43118         4.63495         8.08416
   C       27.49930         1.16197        13.80060
   C       27.02437         0.44969        14.89477
   C       28.02025        -0.04767        15.72173
   S       29.24021         1.20926        13.81218
   O       29.29642         2.41726        11.76931
   O       24.80853         3.83063         9.01355
   C       30.90097         3.66849         9.71187
   C       31.33135         4.66410        10.79271
   C       26.49261         5.21726         7.09046
   C       26.05675         4.16551         6.06662
   C       29.28575         0.28507        15.27981
   C       19.46744         5.23236         4.30674
   C       20.42439         5.19111         3.31092
   C       21.26527         4.09472         3.17416
   C       21.13133         3.04067         4.07025
   C       20.18285         3.07794         5.07253
   C       14.07153         3.26534         9.09685
   C       13.06045         3.23336        10.03707
   C       13.13801         3.99888        11.19352
   C       14.26651         4.78414        11.39398
   C       15.28332         4.81850        10.45994
   C       22.32553         4.05956         2.11120
   C       23.67992         4.47136         2.69098
   C       12.05226         3.94107        12.22932
   C       12.38701         2.89759        13.29691
   C       34.19916         0.26064        16.13344
   C       32.83330        -0.04178        16.26791
   C       32.38933        -0.90361        17.30219
   C       33.24635        -1.49598        18.21492
   C       34.61574        -1.21806        18.06344
   C       35.05727        -0.34732        17.03371
   C       31.76205         0.41436        15.46483
   C       30.53763        -0.02790        15.87629
   S       30.65021        -1.06784        17.28583
   C       35.69563        -1.71601        18.83238
   C       36.91292        -1.22820        18.45261
   S       36.78710        -0.12544        17.09114
   C       34.66645         1.18174        15.08831
   C       32.74407        -2.35185        19.29840
   C       38.18017        -1.51576        19.03085
   C       39.38954        -0.92197        18.72553
   C       40.43322        -1.42010        19.48964
   C       40.05546        -2.41470        20.38190
   S       38.34668        -2.73056        20.25942
   C       40.95149        -3.05099        21.27698
   S       42.58024        -2.42292        21.34484
   C       43.08127        -3.59341        22.54106
   C       42.02490        -4.43768        22.85465
   C       40.81981        -4.12790        22.14508
   C       42.11846        -5.54680        23.79021
   C       40.91207        -6.36403        23.89248
   C       39.71006        -6.05297        23.18031
   C       39.59146        -4.88056        22.31903
   C       40.79723        -7.49163        24.66715
   S       39.22522        -8.19467        24.49859
   C       38.70668        -6.96371        23.39903
   C       44.42909        -3.51231        22.98538
   C       45.34121        -2.58506        22.51194
   C       46.60375        -2.69048        23.09808
   S       45.17059        -4.53216        24.18873
   O       43.13396        -5.79852        24.43251
   O       38.52734        -4.56221        21.79248
   C       41.81899        -8.15215        25.52026
   C       42.72819        -9.05162        24.67766
   C       37.32221        -6.98070        22.86043
   C       36.40189        -6.08350        23.69222
   C       46.65374        -3.69665        24.01912
   C       31.89676        -3.41987        19.02045
   C       31.40184        -4.20587        20.04304
   C       31.72780        -3.94253        21.36672
   C       32.57741        -2.87718        21.64100
   C       33.08252        -2.09206        20.62380
   C       34.08929         2.44102        14.94716
   C       34.50709         3.29546        13.94582
   C       35.50591         2.91797        13.05740
   C       36.09033         1.66678        13.21010
   C       35.68064         0.80847        14.21159
   C       31.21049        -4.81028        22.47793
   C       32.26808        -5.83291        22.89648
   C       35.98079         3.85870        11.98756
   C       37.18612         4.66271        12.47894
   H       -1.61808         6.16506        -5.74205
   H       -3.82744         6.67760        -4.45585
   H        2.36362         6.40473         0.18924
   H        6.21789         5.67692        -2.60763
   H        8.20001         5.55380        -0.94199
   H       12.01707         5.47639         1.27414
   H       14.41915         5.13377         2.18891
   H        8.06992         6.46083         9.30937
   H        9.34641         6.43492         8.06688
   H        7.87851         3.95563         9.07753
   H        9.50154         4.46734         9.56588
   H        9.19653         3.99887         7.89295
   H        3.73991         6.94404         4.80326
   H        3.29601         6.92159         6.52997
   H        3.64733         4.49644         4.70344
   H        2.11388         5.12897         5.30443
   H        3.26739         4.40287         6.43128
   H       -1.94722         5.42790         0.04896
   H       -2.56759         5.93241         2.36814
   H        0.40884         8.98434         2.50698
   H        1.02115         8.49495         0.18128
   H        0.32273         7.70318        -6.27301
   H        1.04902         7.34710        -8.59262
   H        2.96134         3.71380        -7.43905
   H        2.22387         4.05708        -5.12412
   H       -2.47797         7.45967         4.25353
   H       -1.34886         8.82226         4.25659
   H       -0.60108         5.90464         4.77644
   H       -0.72934         7.16948         6.00441
   H        0.53013         7.25904         4.76679
   H        1.83190         5.75224       -10.29055
   H        2.63283         4.24940        -9.80906
   H        3.83820         7.04894        -9.56740
   H        4.26565         5.84647       -10.79000
   H        4.63533         5.55175        -9.08691
   H       13.76769         4.73369         6.94555
   H       20.81013         3.74170         7.60332
   H       19.99765         2.53867        12.18694
   H       22.35352         2.06519        13.16077
   H       25.97240         0.30233        15.06930
   H       27.83931        -0.62349        16.61251
   H       31.55370         3.76557         8.84199
   H       30.99018         2.65933        10.11919
   H       31.22112         5.68741        10.43975
   H       32.37153         4.49047        11.05496
   H       30.72408         4.52580        11.68288
   H       26.97692         6.05075         6.57772
   H       25.60504         5.57991         7.61251
   H       26.92087         3.74135         5.55933
   H       25.40481         4.62309         5.32798
   H       25.51077         3.37063         6.56737
   H       18.82687         6.09660         4.40298
   H       20.51643         6.02240         2.62628
   H       21.77415         2.17679         3.97589
   H       20.07590         2.24075         5.74714
   H       14.00201         2.65302         8.20949
   H       12.19481         2.60842         9.86765
   H       14.34512         5.38407        12.28962
   H       16.14378         5.45073        10.62247
   H       22.05821         4.73775         1.29861
   H       22.40384         3.04999         1.70158
   H       23.62369         5.47744         3.10158
   H       24.44727         4.45241         1.92034
   H       23.97049         3.79015         3.48767
   H       11.10257         3.67989        11.75748
   H       11.94109         4.91831        12.70422
   H       12.48816         1.91377        12.84407
   H       11.60233         2.85572        14.04893
   H       13.32588         3.14574        13.78662
   H       31.88581         1.04518        14.60281
   H       35.58208        -2.41816        19.63907
   H       39.49559        -0.15216        17.98126
   H       41.45129        -1.08080        19.40616
   H       45.08842        -1.85609        21.76161
   H       47.43346        -2.05260        22.85031
   H       41.32178        -8.74842        26.28794
   H       42.43136        -7.38491        25.99714
   H       42.14279        -9.80062        24.14804
   H       43.44517        -9.55620        25.31920
   H       43.27373        -8.45122        23.95465
   H       36.94167        -8.00412        22.86687
   H       37.33643        -6.60610        21.83511
   H       36.40006        -6.39579        24.73453
   H       35.38851        -6.14271        23.30551
   H       36.73918        -5.05253        23.62882
   H       47.49727        -3.99327        24.61142
   H       31.63861        -3.64384        17.99592
   H       30.74766        -5.03390        19.80923
   H       32.83937        -2.65553        22.66601
   H       33.72368        -1.25373        20.85515
   H       33.32066         2.75520        15.63835
   H       34.04687         4.26891        13.84956
   H       36.87062         1.35735        12.52917
   H       36.13192        -0.16854        14.30253
   H       30.31011        -5.33354        22.15046
   H       30.95110        -4.19097        23.33956
   H       32.53968        -6.46265        22.05178
   H       31.89214        -6.46647        23.69668
   H       33.16282        -5.32354        23.24756
   H       35.17759         4.54650        11.71456
   H       36.26454         3.29364        11.09702
   H       36.91873         5.24390        13.35868
   H       37.53244         5.34309        11.70425
   H       38.00202         3.99514        12.74637
*
