# ORCA input file
# SCF done       -379.375687164652          0.000267692220
! wb97x-d3 def2-SVP def2/J RIJCOSX Grid4 TightSCF
%maxcore 5000
%tddft
    Mode sTDA
    Ethresh 5.0
    maxcore 5000
end

%pal
  nprocs 6
  end
* xyz 1 2
   C        0.25206         5.40970        10.94469
   C        1.14725         6.37836        10.53978
   C        2.25571         6.08989         9.71946
   C        2.54294         4.79125         9.24049
   C        1.62914         3.78764         9.65068
   C        0.51674         4.09501        10.47971
   N        1.58548         2.47406         9.39740
   N        0.52356         2.05672        10.03217
   N       -0.15405         2.95886        10.69118
   C        0.13361         0.67604        10.03376
   C        0.33683         0.06869        11.41754
   C        3.65285         4.51616         8.42003
   C        4.55281         5.48245         8.02163
   C        4.29740         6.80235         8.48927
   C        3.17326         7.09261         9.31374
   N        4.95484         7.95318         8.29827
   N        4.26126         8.83926         8.96392
   N        3.19850         8.40237         9.58445
   C        4.62170        10.22787         8.96883
   C        4.08428        10.92411         7.72190
   C       -0.88358         5.65673        11.78570
   C       -1.33327         6.85336        12.29594
   C       -2.48042         6.74878        13.09419
   C       -2.91796         5.43596        13.19357
   S       -1.89570         4.34754        12.29492
   C       -3.13481         7.90699        13.78613
   C       -2.25976         9.15317        13.86799
   C       -4.02630         4.89521        13.90933
   S       -4.06032         3.18599        14.25816
   C       -5.59035         3.30543        15.07739
   C       -6.01525         4.61456        15.04968
   C       -5.15251         5.50953        14.40408
   C       -6.21426         2.15049        15.64572
   C       -7.13493         2.05578        16.66310
   C       -7.54147         0.74190        16.96857
   C       -6.92085        -0.17273        16.18085
   S       -5.83940         0.55517        15.06146
   C        5.67887         5.19165         7.18288
   C        6.65542         6.05983         6.75695
   C        7.63217         5.47735         5.93620
   C        7.39767         4.12637         5.73081
   S        5.95897         3.59573         6.55709
   C        8.76832         6.23391         5.31636
   C        8.54816         7.74260         5.28128
   F       -7.58717         3.10832        17.35599
   F       -7.18925         5.02036        15.55076
   C       13.10864        -4.20778        -1.54129
   C       13.24471        -5.06942        -2.61006
   C       14.49251        -5.35638        -3.19739
   C       15.70834        -4.80301        -2.73489
   C       15.58073        -3.92068        -1.63196
   C       14.31206        -3.62830        -1.06133
   N       16.49381        -3.21516        -0.95369
   N       15.80049        -2.56309        -0.05943
   N       14.50923        -2.76024        -0.06478
   C       16.42311        -1.70433         0.90628
   C       16.51030        -2.40177         2.26010
   C       16.94783        -5.09215        -3.33705
   C       17.07692        -5.91719        -4.43455
   C       15.87074        -6.48580        -4.93258
   C       14.61475        -6.21572        -4.31904
   N       15.63908        -7.31596        -5.95756
   N       14.34650        -7.51084        -5.93360
   N       13.68021        -6.89173        -4.99649
   C       13.68992        -8.32026        -6.91936
   C       13.33037        -7.48444        -8.14446
   C       11.85389        -3.87039        -0.93363
   C       10.60900        -4.40624        -1.17067
   C        9.57473        -3.83558        -0.41683
   C       10.03595        -2.82415         0.41304
   S       11.76314        -2.62173         0.26258
   C        8.15110        -4.26692        -0.59304
   C        7.35296        -3.23486        -1.39167
   C        9.33635        -1.95262         1.29873
   S       10.16948        -0.55011         1.92290
   C        8.76885        -0.02079         2.80692
   C        7.74264        -0.92107         2.60650
   C        8.04269        -1.99724         1.76997
   C        8.74794         1.18145         3.56398
   C        9.76617         2.09255         3.75559
   C        9.43468         3.21030         4.52472
   C        8.12544         3.18158         4.94970
   S        7.32146         1.73853         4.38674
   C       18.33890        -6.18695        -5.06118
   C       18.56075        -6.87989        -6.22662
   C       19.90876        -6.96041        -6.60612
   C       20.73945        -6.31526        -5.70469
   S       19.83621        -5.61724        -4.38903
   C       20.39719        -7.69535        -7.81802
   C       19.42843        -8.76730        -8.30715
   F       10.99537         1.91827         3.23883
   F        6.53203        -0.77046         3.17198
   C       33.10092        -4.91041        -5.42511
   C       34.40710        -5.05823        -5.00766
   C       35.50510        -4.82244        -5.85937
   C       35.36322        -4.41663        -7.20541
   C       34.02450        -4.25384        -7.64293
   C       32.92876        -4.49455        -6.77103
   N       33.51742        -3.88301        -8.82549
   N       32.22403        -3.90590        -8.64472
   N       31.80754        -4.25651        -7.45729
   C       31.30394        -3.57271        -9.69461
   C       30.38623        -4.75252        -9.99106
   C       36.46913        -4.19500        -8.04924
   C       37.77410        -4.35552        -7.63801
   C       37.95522        -4.76215        -6.28660
   C       36.84475        -4.98700        -5.42372
   N       39.06385        -5.00018        -5.57401
   N       38.62400        -5.33494        -4.38941
   N       37.32760        -5.35033        -4.23034
   C       39.51884        -5.71233        -3.33347
   C       39.86261        -7.19611        -3.42686
   C       31.95265        -5.16015        -4.60216
   C       31.89851        -5.50007        -3.27028
   C       30.60325        -5.68439        -2.76699
   C       29.63680        -5.49069        -3.74204
   S       30.35889        -5.06251        -5.27201
   C       30.36657        -6.11537        -1.35198
   C       29.93037        -7.57965        -1.28195
   C       28.21575        -5.59879        -3.68518
   S       27.32520        -5.68762        -5.18443
   C       25.79939        -5.79156        -4.35673
   C       26.02133        -5.75027        -2.99585
   C       27.35886        -5.64814        -2.60838
   C       24.56382        -5.92350        -5.04687
   C       24.35407        -6.04312        -6.40508
   C       23.02093        -6.19104        -6.79487
   C       22.15996        -6.18216        -5.72151
   S       23.03313        -5.98323        -4.22424
   C       38.89602        -4.13479        -8.50851
   C       40.22773        -4.28142        -8.22564
   C       41.07670        -3.98484        -9.31491
   C       40.37079        -3.61498       -10.41970
   S       38.67321        -3.61693       -10.15859
   C       42.56696        -4.11194        -9.26094
   C       42.98715        -5.58114        -9.32142
   F       25.36228        -6.02063        -7.29510
   F       25.01968        -5.81130        -2.10085
   H        1.02567         7.40404        10.84961
   H        0.74778         0.17352         9.28496
   H       -0.92111         0.61805         9.75227
   H        1.38651         0.10846        11.69856
   H        0.01329        -0.96807        11.41773
   H       -0.24599         0.62154        12.15006
   H        3.78932         3.49404         8.09824
   H        5.71164        10.29085         8.99889
   H        4.19557        10.66982         9.87113
   H        4.49078        10.45601         6.82869
   H        4.36947        11.97220         7.73081
   H        2.99958        10.85538         7.69149
   H       -0.83798         7.78400        12.09276
   H       -3.40820         7.59505        14.79774
   H       -4.05964         8.15922        13.25727
   H       -1.30584         8.92180        14.33588
   H       -2.75959         9.91259        14.46503
   H       -2.07623         9.56809        12.88011
   H       -5.39469         6.54713        14.28620
   H       -8.25257         0.51355        17.74041
   H       -7.03137        -1.23804        16.18869
   H        6.63816         7.09405         7.04341
   H        8.91293         5.86820         4.29617
   H        9.68546         6.02215         5.87570
   H        7.60813         7.97955         4.78888
   H        9.35594         8.21862         4.72973
   H        8.53172         8.15826         6.28531
   H       12.38061        -5.54530        -3.04557
   H       15.81860        -0.79813         0.98966
   H       17.41684        -1.46208         0.52621
   H       15.51339        -2.66829         2.60224
   H       16.96710        -1.73839         2.98878
   H       17.11099        -3.30490         2.18228
   H       17.82546        -4.62703        -2.91233
   H       12.78985        -8.73123        -6.45855
   H       14.37302        -9.12659        -7.19420
   H       12.66143        -6.67512        -7.86233
   H       12.83645        -8.10637        -8.88551
   H       14.22906        -7.05921        -8.58468
   H       10.44036        -5.20289        -1.87336
   H        7.68282        -4.43584         0.37764
   H        8.14225        -5.21724        -1.13037
   H        7.35786        -2.27095        -0.88946
   H        6.32256        -3.56198        -1.50950
   H        7.79142        -3.10735        -2.37868
   H        7.32547        -2.76289         1.55065
   H       10.14851         3.97070         4.77341
   H       17.74735        -7.31471        -6.77534
   H       21.35808        -8.15906        -7.58017
   H       20.56929        -6.97723        -8.62654
   H       19.17501        -9.44912        -7.49903
   H       19.88784        -9.33898        -9.11048
   H       18.51301        -8.32244        -8.68805
   H       34.63043        -5.37278        -4.00063
   H       31.90568        -3.30063       -10.56334
   H       30.71005        -2.71141        -9.37446
   H       30.96376        -5.60572       -10.33869
   H       29.66804        -4.47932       -10.75855
   H       29.85014        -5.03499        -9.08856
   H       36.26156        -3.88716        -9.06364
   H       39.01833        -5.49298        -2.38862
   H       40.42152        -5.10536        -3.42989
   H       38.95987        -7.79607        -3.34155
   H       40.54347        -7.46990        -2.62592
   H       40.33741        -7.41055        -4.38122
   H       32.77728        -5.61307        -2.66050
   H       29.61625        -5.47825        -0.88149
   H       31.29670        -5.99306        -0.79367
   H       29.00769        -7.73345        -1.83539
   H       29.77100        -7.87776        -0.24838
   H       30.69778        -8.21856        -1.71277
   H       27.65119        -5.59695        -1.57827
   H       22.72207        -6.25831        -7.82265
   H       40.57575        -4.58983        -7.25716
   H       40.75031        -3.33419       -11.38269
   H       42.93255        -3.66957        -8.33139
   H       43.01183        -3.56949       -10.09737
   H       42.55136        -6.13381        -8.49240
   H       44.06985        -5.66984        -9.26855
   H       42.64668        -6.03296       -10.25056
*
