# ORCA input file
# SCF done       -436.152738948665          0.000661460307
! wb97x-d3 def2-SVP def2/J RIJCOSX Grid4 TightSCF
%maxcore 5000
%tddft
    Mode sTDA
    Ethresh 5.0
    maxcore 5000
end

%pal
  nprocs 6
  end
* xyz 1 2
   C        5.57154        14.38926        -0.83443
   C        4.19872        14.56893        -1.08124
   C        3.48105        13.60511        -1.82675
   C        4.05573        12.44036        -2.33124
   C        5.43184        12.26688        -2.09487
   C        6.15486        13.24538        -1.36988
   C        3.36090        15.65159        -0.68072
   C        2.08121        15.50134        -1.07593
   S        1.80149        14.04908        -1.97036
   C        6.26553        11.19776        -2.50858
   C        7.56230        11.32410        -2.10975
   S        7.83089        12.79689        -1.20020
   C        6.35439        15.31830        -0.04217
   C        3.25617        11.46520        -3.04558
   C        7.63022        15.74746        -0.27182
   C        8.09082        16.60610         0.74531
   C        7.21236        16.83512         1.76161
   S        5.74439        15.97311         1.45382
   C        2.25887        11.70323        -3.94865
   C        1.66168        10.51253        -4.40477
   C        2.16460         9.36326        -3.87189
   S        3.43136         9.75346        -2.76118
   C        7.38712        17.69672         2.96410
   C        6.41731        18.87879         2.95484
   C        1.73284         7.95922        -4.11872
   C        1.03639         7.36608        -2.89294
   C        8.64061        10.42834        -2.36149
   S        8.35463         8.90223        -3.14342
   C       10.04535         8.49367        -3.07331
   C       10.75926         9.49920        -2.47041
   C        9.97364        10.58736        -2.07362
   C       10.52717         7.21148        -3.53984
   C       10.01527         6.58075        -4.68920
   C       10.48143         5.30044        -5.06098
   C       11.45773         4.60034        -4.35422
   C       11.98436         5.23843        -3.21722
   C       11.51613         6.51769        -2.84189
   C       12.94490         4.73737        -2.29055
   C       13.21071         5.57762        -1.26726
   S       12.29102         7.05680        -1.37645
   C       14.19467         5.39599        -0.16459
   C       15.49558         6.14347        -0.46740
   C        9.07659         7.08874        -5.63513
   C        8.82293         6.25038        -6.66329
   S        9.72793         4.76299        -6.53743
   C        7.92800         6.47094        -7.83258
   C        8.73401         6.65907        -9.11908
   C       11.90099         3.29603        -4.79800
   S       13.58293         2.85204        -4.78398
   C       13.22854         1.30256        -5.48958
   C       11.88057         1.16243        -5.70960
   C       11.13821         2.28562        -5.32737
   F        9.31799        17.15805         0.71310
   F        0.67006        10.51317        -5.31474
   C       17.79379        -0.72556        -5.79753
   C       16.39861        -0.56799        -5.91697
   C       15.61795        -1.57907        -6.52807
   C       16.15402        -2.75928        -7.03199
   C       17.55395        -2.89548        -6.95396
   C       18.33653        -1.88119        -6.34949
   C       15.60663         0.53381        -5.51186
   C       14.27566         0.37752        -5.76076
   S       13.92611        -1.15828        -6.52602
   C       18.35483        -3.95243        -7.44884
   C       19.68959        -3.78592        -7.22623
   S       20.03090        -2.29431        -6.37362
   C       18.62273         0.25214        -5.12138
   C       15.30285        -3.78711        -7.59684
   C       19.87026         0.68833        -5.46595
   C       20.37691         1.62531        -4.54415
   C       19.56297         1.90987        -3.48865
   S       18.10250         0.99466        -3.63151
   C       14.19379        -3.62226        -8.37754
   C       13.58498        -4.85036        -8.69928
   C       14.18849        -5.95746        -8.18201
   S       15.56947        -5.47730        -7.25786
   C       19.79339         2.85848        -2.36307
   C       18.70467         3.92945        -2.29554
   C       13.77937        -7.38381        -8.31118
   C       13.28110        -7.94539        -6.97870
   C       20.74392        -4.64393        -7.64957
   S       20.37810        -6.12638        -8.48124
   C       22.06753        -6.47703        -8.70773
   C       22.84164        -5.49601        -8.13885
   C       22.10162        -4.46396        -7.55007
   C       22.50189        -7.68222        -9.38103
   C       21.82513        -8.20901       -10.49800
   C       22.27401        -9.40683       -11.09688
   C       23.39191       -10.11626       -10.66009
   C       24.07595        -9.58376        -9.55418
   C       23.62063        -8.39262        -8.94511
   C       25.20565       -10.12560        -8.87413
   C       25.60215        -9.40025        -7.80617
   S       24.60734        -7.98531        -7.56754
   C       26.75912        -9.64734        -6.90245
   C       27.90369        -8.67598        -7.19902
   C       20.71607        -7.65825       -11.20582
   C       20.32643        -8.38768       -12.27359
   S       21.30009        -9.82053       -12.48166
   C       19.18856        -8.12794       -13.19799
   C       18.01342        -9.06014       -12.89525
   C       23.81567       -11.31269       -11.35637
   S       25.48784       -11.60797       -11.73870
   C       25.07766       -13.04208       -12.63474
   C       23.72310       -13.26512       -12.60539
   C       23.01686       -12.29191       -11.89059
   F       21.58357         2.20076        -4.70092
   F       12.48806        -4.92248        -9.47631
   C       29.51205       -14.61516       -14.37135
   C       28.12159       -14.50876       -14.16844
   C       27.23825       -15.37160       -14.86224
   C       27.66550       -16.34762       -15.75443
   C       29.05306       -16.42749       -15.98434
   C       29.93906       -15.58349       -15.27237
   C       27.42616       -13.63238       -13.29836
   C       26.07254       -13.79326       -13.32350
   S       25.58077       -15.06938       -14.41974
   C       29.73591       -17.23528       -16.92601
   C       31.08674       -17.05044       -16.93230
   S       31.59352       -15.85987       -15.75013
   C       30.44103       -13.73612       -13.68829
   C       26.74808       -17.25217       -16.41720
   C       30.33552       -12.38985       -13.48483
   C       31.43724       -11.87652       -12.77288
   C       32.38535       -12.79075       -12.42303
   S       31.91288       -14.35549       -12.99106
   C       26.90682       -18.59157       -16.63586
   C       25.80263       -19.15079       -17.30737
   C       24.80537       -18.27644       -17.62131
   S       25.22644       -16.69580       -17.05703
   C       33.64076       -12.57531       -11.65074
   C       33.58019       -13.25349       -10.28136
   C       23.50625       -18.55363       -18.29495
   C       22.33363       -18.39015       -17.32684
   C       32.04690       -17.67997       -17.77496
   S       31.53834       -18.73875       -19.05858
   C       33.18316       -18.99682       -19.56117
   C       34.05063       -18.30670       -18.75342
   C       33.41428       -17.55770       -17.75628
   C       33.50797       -19.87458       -20.66719
   C       32.78032       -19.87860       -21.87010
   C       33.12665       -20.77958       -22.90180
   C       34.16136       -21.70596       -22.79964
   C       34.90112       -21.68788       -21.60573
   C       34.56692       -20.77592       -20.57957
   C       36.01863       -22.49719       -21.24462
   C       36.50078       -22.24601       -20.00881
   S       35.61097       -20.97889       -19.19937
   C       37.61944       -22.92701       -19.30072
   C       37.08634       -23.88908       -18.23700
   C       31.68178       -19.05062       -22.24550
   C       31.19396       -19.31182       -23.47760
   S       32.06412       -20.60057       -24.27182
   C       30.04457       -18.66505       -24.16864
   C       28.84346       -19.60968       -24.24165
   C       34.42644       -22.64508       -23.87345
   S       34.72654       -24.33071       -23.55555
   C       34.84383       -24.66860       -25.23504
   C       34.66800       -23.55680       -25.99305
   C       34.42251       -22.40468       -25.21913
   F       31.54405       -10.56886       -12.46787
   F       25.74348       -20.45941       -17.61983
   H        3.71135        16.50386        -0.12923
   H        1.25707        16.16661        -0.90845
   H        5.92801        10.36153        -3.09287
   H        8.21347        15.49899        -1.13842
   H        1.97534        12.67500        -4.30650
   H        8.41706        18.05962         2.97710
   H        7.22093        17.10258         3.86689
   H        6.57288        19.49055         2.06914
   H        6.57210        19.49700         3.83512
   H        5.38937        18.52261         2.95496
   H        2.60296         7.34711        -4.36988
   H        1.04984         7.95549        -4.97091
   H        1.71234         7.36243        -2.04062
   H        0.72566         6.34472        -3.09659
   H        0.15714         7.95240        -2.63623
   H       11.82658         9.46968        -2.34903
   H       10.36249        11.46839        -1.59459
   H       13.40771         3.77197        -2.37978
   H       14.40289         4.33035        -0.04863
   H       13.77316         5.77114         0.77052
   H       15.93458         5.77767        -1.39286
   H       16.20925         5.99816         0.33946
   H       15.30165         7.20836        -0.57290
   H        8.62034         8.05811        -5.55641
   H        7.31616         7.35563        -7.64527
   H        7.26336         5.61128        -7.95022
   H        9.39510         7.51808        -9.02881
   H        8.06639         6.82026        -9.96154
   H        9.33833         5.77671        -9.31715
   H       11.45192         0.27147        -6.13304
   H       10.06772         2.33978        -5.40619
   H       15.99960         1.42866        -5.06546
   H       17.96808        -4.80499        -7.97628
   H       20.39928         0.39364        -6.35254
   H       13.83605        -2.67805        -8.74259
   H       20.77062         3.32499        -2.50487
   H       19.81288         2.30702        -1.41845
   H       18.67550         4.50076        -3.22067
   H       18.90024         4.61169        -1.47229
   H       17.73156         3.46718        -2.14303
   H       14.62894        -7.97844        -8.65717
   H       12.98666        -7.44628        -9.05982
   H       14.06764        -7.89067        -6.22920
   H       12.98385        -8.98398        -7.09781
   H       12.42422        -7.37690        -6.62467
   H       23.91542        -5.49815        -8.18177
   H       22.53910        -3.60384        -7.07495
   H       25.69140       -11.03730        -9.17012
   H       27.10186       -10.67463        -7.04181
   H       26.44513        -9.52516        -5.86297
   H       28.23781        -8.78887        -8.22783
   H       28.74317        -8.86980        -6.53632
   H       27.57396        -7.64999        -7.05231
   H       20.23996        -6.73319       -10.93917
   H       19.51191        -8.28180       -14.23019
   H       18.87278        -7.08885       -13.08534
   H       18.31561       -10.09787       -13.01646
   H       17.18732        -8.85667       -13.57171
   H       17.67146        -8.91571       -11.87288
   H       23.26429       -14.10630       -13.09397
   H       21.95210       -12.32097       -11.74747
   H       27.90688       -12.91470       -12.65912
   H       29.24501       -17.90901       -17.60445
   H       29.53730       -11.77533       -13.85750
   H       27.74654       -19.17032       -16.29888
   H       33.78696       -11.50009       -11.52702
   H       34.48788       -12.97608       -12.21331
   H       32.75257       -12.85677        -9.69785
   H       34.50420       -13.07984        -9.73617
   H       33.43944       -14.32565       -10.39875
   H       23.53015       -19.57479       -18.68142
   H       23.37636       -17.86871       -19.13682
   H       22.43416       -19.07852       -16.49085
   H       21.39565       -18.59602       -17.83580
   H       22.30609       -17.37454       -16.93817
   H       35.11547       -18.31244       -18.89958
   H       33.93091       -16.94261       -17.04097
   H       36.44977       -23.23420       -21.89707
   H       38.25942       -22.18167       -18.82239
   H       38.21592       -23.47808       -20.03064
   H       36.49823       -23.34653       -17.50025
   H       37.91011       -24.38431       -17.72938
   H       36.45360       -24.64515       -18.69631
   H       31.28073       -18.27709       -21.61655
   H       30.33966       -18.38207       -25.18225
   H       29.77039       -17.75943       -23.62368
   H       29.10673       -20.51084       -24.79087
   H       28.01237       -19.12403       -24.74669
   H       28.52595       -19.89429       -23.24111
   H       35.03961       -25.67295       -25.55400
   H       34.71017       -23.55385       -27.06743
   H       34.27975       -21.42709       -25.64247
*
