# ORCA input file
# SCF done       -183.016415676455          0.000808364364
! CAM-B3LYP def2-SVP def2/J RIJCOSX Grid4 TightSCF
%maxcore 5000
%tddft
    Mode sTDDFT
    Ethresh 5.0
    maxcore 5000
end

%pal
  nprocs 6
  end
* xyz 0 1
   C        2.54927         1.80554        -1.66866
   O        1.37288         1.52674        -1.65350
   C        3.19084         3.07484        -2.04501
   C        4.57141         2.91485        -1.97217
   C        4.92946         1.57859        -1.59411
   C        6.18229         1.03110        -1.74206
   C        7.27496         1.83343        -2.12522
   N        8.17026         2.49024        -2.41606
   C        6.47958        -0.33712        -1.62673
   N        6.77121        -1.44731        -1.58821
   C        3.67955         0.91786        -1.25390
   C        3.40327        -0.24875        -0.61354
   C        4.24374        -1.08960         0.15692
   S        3.86094        -2.80874         0.14024
   C        5.18250        -3.13941         1.19259
   C        5.83594        -1.96101         1.57191
   C        5.30736        -0.79434         0.99772
   C        5.75426         0.58255         1.37063
   C        5.68172         0.80916         2.88126
   S        7.18999        -2.24457         2.64096
   C        6.86447        -3.93965         2.57328
   C        5.77397        -4.27179         1.76315
   N        5.56614        -5.62566         1.78267
   C        4.29461        -6.15704         1.33563
   C        6.52484        -6.18207         2.61384
   C        7.33095        -5.13333         3.14179
   C        8.29414        -5.36985         4.14798
   N        9.08889        -4.49806         4.74855
   S        9.92183        -5.27061         5.90077
   N        9.29884        -6.74842         5.68212
   C        8.42057        -6.69142         4.69343
   C        7.66793        -7.73954         4.11989
   C        6.79926        -7.51335         3.01545
   N        6.28786        -8.72981         2.59227
   C        5.91236        -9.11790         1.24825
   C        7.09299        -9.73137         0.49624
   C        6.77469        -9.69321         3.43996
   C        7.62490        -9.11689         4.39069
   S        8.30987       -10.25854         5.49246
   C        7.43939       -11.53617         4.67394
   C        6.66142       -11.07367         3.60417
   S        5.80409       -12.35975         2.84611
   C        6.53670       -13.52703         3.94864
   C        7.36318       -12.91558         4.88477
   C        8.16346       -13.64340         5.91105
   C        9.41347       -14.25752         5.27576
   C        6.19267       -14.89447         3.90349
   C        5.65170       -15.61248         2.88165
   C        5.51997       -15.32305         1.46523
   C        6.34591       -14.56639         0.67117
   C        6.09817       -14.41651        -0.70699
   N        5.88835       -14.26568        -1.82549
   C        7.53530       -13.96325         1.12188
   N        8.54077       -13.50833         1.43995
   C        4.50109       -16.21679         0.98145
   C        4.15305       -17.15274         1.94642
   C        4.91417       -16.87772         3.17535
   O        4.92463       -17.49483         4.21584
   C        3.51308        -6.81816         2.46530
   C        3.20864       -18.08587         1.48614
   C        2.86691       -17.83695         0.18998
   S        3.68686       -16.48249        -0.50147
   S        5.41450         4.33620        -2.42712
   C        3.89262         5.16218        -2.69897
   C        2.80266         4.34947        -2.45885
   C        3.88699         6.51993        -3.12760
   S        2.38920         7.36589        -3.40493
   C        3.23836         8.78907        -3.84378
   C        4.58874         8.62874        -3.78266
   C        4.96318         7.33790        -3.37566
   H        2.36681        -0.56734        -0.68994
   H        5.12172         1.32025         0.87553
   H        6.78525         0.72998         1.03416
   H        4.67003         0.63255         3.24001
   H        5.95578         1.83585         3.11001
   H        6.36028         0.14650         3.41017
   H        4.42450        -6.84585         0.49626
   H        3.72490        -5.30517         0.95578
   H        5.57459        -8.24212         0.70494
   H        5.09476        -9.84237         1.31647
   H        7.91417        -9.02001         0.44145
   H        6.78605        -9.98890        -0.51364
   H        7.44952       -10.63394         0.98532
   H        7.56243       -14.43242         6.36781
   H        8.45948       -12.93613         6.68811
   H        9.13658       -14.96681         4.49930
   H       10.00038       -14.77365         6.03064
   H       10.02713       -13.48140         4.82588
   H        6.29416       -15.43781         4.83869
   H        4.03572        -7.68600         2.85648
   H        2.54192        -7.13507         2.09587
   H        3.36216        -6.11097         3.27760
   H        2.81063       -18.89129         2.07481
   H        2.17345       -18.38156        -0.42059
   H        1.78544         4.67308        -2.58318
   H        2.68537         9.66395        -4.12232
   H        5.29081         9.40710        -4.02048
   H        5.98191         7.01082        -3.26575
*
