# ORCA input file
# SCF done       -183.023364601552          0.000829228490
! CAM-B3LYP def2-SVP def2/J RIJCOSX Grid4 TightSCF
%maxcore 5000
%tddft
    Mode sTDDFT
    Ethresh 5.0
    maxcore 5000
end

%pal
  nprocs 6
  end
* xyz 0 1
   C        2.76590        -2.05322         1.41888
   O        1.56840        -1.93812         1.25262
   C        3.51917        -3.22093         1.85151
   C        4.90769        -2.88876         1.95803
   C        5.07894        -1.48296         1.64511
   C        6.17269        -0.73352         1.99447
   C        7.32793        -1.33181         2.53502
   N        8.28017        -1.81613         2.95449
   C        6.22764         0.67016         1.92307
   N        6.29907         1.81628         1.92000
   C        3.80035        -1.00672         1.15721
   C        3.43797         0.13492         0.51231
   C        4.22520         1.10114        -0.16335
   S        3.60994         2.75111        -0.13166
   C        4.90775         3.28370        -1.12729
   C        5.73021         2.21407        -1.50189
   C        5.35874         0.97626        -0.95481
   C        6.01623        -0.31265        -1.33953
   C        7.52300        -0.31588        -1.07983
   S        7.02287         2.69237        -2.57965
   C        6.45994         4.32419        -2.50028
   C        5.33708         4.49261        -1.68492
   N        4.95763         5.80638        -1.67474
   C        3.66318         6.16693        -1.14345
   C        5.82361         6.50705        -2.49832
   C        6.76419         5.58100        -3.03959
   C        7.72614         5.95861        -4.00168
   N        8.63346         5.20585        -4.60406
   S        9.43435         6.12370        -5.66967
   N        8.65318         7.51653        -5.40507
   C        7.73959         7.31226        -4.46901
   C        6.85385         8.24310        -3.88354
   C        5.93273         7.87769        -2.85765
   N        5.28179         9.02587        -2.43300
   C        4.57380         9.30234        -1.20158
   C        5.44873         9.03299         0.01973
   C        5.76362        10.07567        -3.16830
   C        6.72306         9.62381        -4.08188
   S        7.40604        10.87545        -5.05722
   C        6.39248        12.03610        -4.22977
   C        5.57387        11.45632        -3.25019
   S        4.60099        12.64344        -2.46640
   C        5.31688        13.91977        -3.45310
   C        6.23947        13.41776        -4.36533
   C        7.05241        14.25762        -5.29065
   C        8.20123        14.92785        -4.53281
   C        4.88283        15.25599        -3.35192
   C        4.24096        15.87608        -2.31949
   C        4.09600        15.50741        -0.92739
   C        4.97329        14.78239        -0.16065
   C        4.72774        14.53344         1.20249
   N        4.51923        14.29896         2.30704
   C        6.21242        14.30792        -0.63073
   N        7.25221        13.96155        -0.97431
   C        2.99192        16.28812        -0.40327
   C        2.61063        17.26816        -1.37906
   C        3.43284        17.09956        -2.58794
   O        3.43652        17.76077        -3.60108
   C        2.67613         6.50592        -2.25800
   C        1.61531        18.08439        -0.95144
   S        1.12243        17.66376         0.64820
   C        2.27583        16.38353         0.74821
   C        5.67831        -3.93385         2.35914
   S        4.72110        -5.34949         2.60931
   C        3.23274        -4.52443         2.17700
   C        1.98389        -5.19870         2.20107
   S        0.49687        -4.38670         1.79480
   C       -0.38397        -5.82654         2.07395
   C        0.40515        -6.87210         2.45644
   C        1.75719        -6.51749         2.53090
   H        2.36544         0.31243         0.48635
   H        5.85181        -0.46125        -2.41189
   H        5.54059        -1.14223        -0.81555
   H        8.02349         0.39820        -1.72789
   H        7.92844        -1.30497        -1.27843
   H        7.74927        -0.05051        -0.05052
   H        3.75698         6.97922        -0.42310
   H        3.29891         5.29470        -0.59523
   H        3.63774         8.74597        -1.16152
   H        4.31249        10.36322        -1.22700
   H        4.88929         9.23745         0.92852
   H        6.32155         9.68163         0.00007
   H        5.79271         8.00137         0.04052
   H        6.42526        15.02349        -5.75213
   H        7.45787        13.61795        -6.07687
   H        7.81434        15.57174        -3.74659
   H        8.79939        15.52572        -5.21523
   H        8.83881        14.17665        -4.07407
   H        4.99377        15.85797        -4.24940
   H        3.04568         7.31849        -2.87946
   H        1.71939         6.79453        -1.83124
   H        2.52264         5.63686        -2.89358
   H        1.14420        18.90057        -1.46124
   H        2.33474        15.79165         1.63964
   H        6.73710        -3.98191         2.51753
   H       -1.44806        -5.82663         1.94051
   H        0.03104        -7.85565         2.67672
   H        2.54807        -7.19013         2.81313
*
