# ORCA input file
# SCF done       -547.092434924874          0.000740669991
! CAM-B3LYP def2-SVP def2/J RIJCOSX Grid4 TightSCF
%maxcore 5000
%tddft
    Mode sTDDFT
    Ethresh 5.0
    maxcore 5000
end

%pal
  nprocs 6
  end
* xyz 0 1
   C       -2.11029        -3.84017         1.15482
   O       -1.16141        -3.84575         1.91307
   C       -2.69317        -4.95020         0.41560
   C       -3.77101        -4.47357        -0.39631
   C       -3.88219        -3.03669        -0.23080
   C       -4.56382        -2.20398        -1.08624
   C       -5.36911        -2.71679        -2.12201
   N       -6.04617        -3.12831        -2.95256
   C       -4.45439        -0.80219        -1.07744
   N       -4.36453         0.34177        -1.11602
   C       -2.97619        -2.66546         0.82901
   C       -2.81809        -1.51968         1.55375
   C       -3.67149        -0.41205         1.74669
   S       -2.85868         1.11060         2.12141
   C       -4.36790         1.92762         2.24349
   C       -5.43174         1.03577         2.06040
   C       -5.05725        -0.28371         1.77989
   C       -6.07189        -1.37834         1.70291
   C       -5.87224        -2.43154         2.79330
   S       -7.00276         1.78735         2.21783
   C       -6.21787         3.29721         2.51703
   C       -4.82104         3.22674         2.49495
   N       -4.28551         4.46048         2.74677
   C       -2.88347         4.56837         3.08295
   C       -5.33184         5.34531         2.95210
   C       -6.55428         4.62082         2.82752
   C       -7.81159         5.20933         3.08514
   N       -9.01218         4.65438         3.03007
   S      -10.10588         5.75416         3.49216
   N       -9.08960         6.98116         3.78005
   C       -7.85723         6.57203         3.52225
   C       -6.65276         7.30604         3.58433
   C       -5.39225         6.73660         3.23704
   N       -4.43597         7.73815         3.29931
   C       -3.11449         7.81050         2.71675
   C       -3.15572         7.57848         1.20830
   C       -5.05927         8.89105         3.69462
   C       -6.42406         8.65219         3.89496
   S       -7.30893        10.03365         4.43339
   C       -5.82693        10.96004         4.39578
   C       -4.71606        10.21636         3.97350
   S       -3.28755        11.18263         3.96624
   C       -4.19103        12.57180         4.57187
   C       -5.54580        12.29063         4.71283
   C       -6.55725        13.24464         5.25179
   C       -6.44111        13.34478         6.77475
   C       -3.58507        13.82439         4.79324
   C       -2.27619        14.14152         5.00244
   C       -1.12567        13.33551         5.35082
   C       -1.11023        12.17952         6.09040
   C        0.09228        11.51449         6.39304
   N        1.06475        10.94775         6.61964
   C       -2.25540        11.62561         6.69328
   N       -3.16089        11.19231         7.25139
   C        0.04843        14.13431         5.04857
   C       -0.37143        15.46460         4.73358
   C       -1.82725        15.54412         4.76711
   O       -2.53681        16.51565         4.61394
   C       -2.68366         4.81804         4.57585
   C        0.66301        16.34548         4.53517
   S        2.18660        15.48985         4.71648
   C        1.40069        13.99517         5.07667
   C       -4.36986        -5.45534        -1.11999
   S       -3.63133        -6.98733        -0.81693
   C       -2.47007        -6.30094         0.30744
   C       -1.49518        -7.11263         0.94417
   S       -0.32361        -6.44197         2.04535
   C        0.35800        -7.99217         2.28908
   C       -0.26755        -8.97122         1.57359
   C       -1.32553        -8.47302         0.80421
   C       -3.14867        20.63378         2.78614
   O       -3.21517        19.42368         2.76237
   C       -2.02003        21.47857         3.15814
   C       -2.38603        22.85566         3.04062
   C       -3.78951        22.93550         2.67956
   C       -4.58597        24.03455         2.87368
   C       -4.04259        25.27097         3.27289
   N       -3.60265        26.28692         3.57550
   C       -5.98787        24.01254         2.76289
   N       -7.13511        24.02245         2.71361
   C       -4.20991        21.59064         2.34711
   C       -5.30725        21.10459         1.70394
   C       -6.26738        21.74651         0.88591
   S       -7.86195        20.99489         0.85549
   C       -8.41450        22.14060        -0.30248
   C       -7.38994        23.02513        -0.66472
   C       -6.17238        22.81054        -0.00298
   C       -4.91158        23.52308        -0.38386
   C       -5.02955        25.04524        -0.30088
   S       -7.88002        24.17326        -1.89043
   C       -9.45052        23.45508        -1.90522
   C       -9.59478        22.39179        -1.01005
   N      -10.85300        21.86347        -1.11130
   C      -11.13768        20.59880        -0.47436
   C      -11.53401        22.56043        -2.09625
   C      -10.65885        23.56717        -2.60366
   C      -11.01086        24.41089        -3.67883
   N      -10.29837        25.37168        -4.24648
   S      -11.15120        25.97764        -5.48174
   N      -12.45940        25.03424        -5.34215
   C      -12.27559        24.21502        -4.31828
   C      -13.15063        23.23454        -3.80400
   C      -12.83422        22.44121        -2.66154
   N      -13.92324        21.62344        -2.39397
   C      -14.30977        20.93131        -1.18356
   C      -14.43674        21.89612        -0.00700
   C      -14.87838        21.87032        -3.34417
   C      -14.42868        22.85324        -4.22991
   S      -15.54052        23.21632        -5.49964
   C      -16.63286        22.01467        -4.85057
   C      -16.13925        21.38087        -3.70335
   S      -17.21013        20.13765        -3.18099
   C      -18.32921        20.50131        -4.49331
   C      -17.86992        21.53468        -5.30142
   C      -18.45901        21.99399        -6.59855
   C      -18.78038        23.48932        -6.59807
   C      -19.41455        19.60727        -4.66735
   C      -20.62581        19.81996        -5.25190
   C      -21.35305        21.04011        -5.52764
   C      -21.29646        22.21399        -4.82341
   C      -22.14571        23.29482        -5.13048
   N      -22.82350        24.18448        -5.38783
   C      -20.43232        22.42170        -3.73262
   N      -19.74798        22.61506        -2.83125
   C      -22.31132        20.71976        -6.56616
   C      -22.31084        19.30470        -6.78413
   C      -21.35889        18.67248        -5.86741
   O      -21.14871        17.49567        -5.66928
   C      -11.10943        19.44977        -1.48017
   C      -23.10283        18.91871        -7.83910
   S      -23.88556        20.32574        -8.53208
   C      -23.12826        21.39829        -7.41525
   C       -1.36188        23.70649         3.31520
   S        0.07612        22.83755         3.71366
   C       -0.71296        21.27879         3.52884
   C       -0.02575        20.06257         3.78055
   S       -0.87619        18.55399         3.91963
   C        0.61889        17.73750         4.26081
   C        1.70024        18.60235         4.24361
   C        1.33515        19.91541         3.98753
   C      -23.55090        16.58136       -13.21634
   O      -23.55153        17.71471       -12.77449
   C      -23.64281        15.32657       -12.48900
   C      -23.62108        14.23339       -13.40978
   C      -23.41536        14.75830       -14.74944
   C      -22.96853        14.00253       -15.80795
   C      -22.91583        12.59660       -15.73436
   N      -22.89256        11.44976       -15.69416
   C      -22.41599        14.54013       -16.98355
   N      -21.92398        14.95185       -17.93589
   C      -23.49269        16.19657       -14.65638
   C      -23.49685        17.20490       -15.57836
   C      -23.69069        17.23446       -16.97339
   S      -22.84784        18.55288       -17.79423
   C      -23.42728        18.01447       -19.31985
   C      -24.28994        16.92044       -19.17356
   C      -24.44795        16.46939       -17.85745
   C      -25.43467        15.40769       -17.49653
   C      -26.52651        15.93119       -16.56251
   S      -24.93607        16.34693       -20.69528
   C      -24.02137        17.56410       -21.51574
   C      -23.26667        18.37361       -20.65987
   N      -22.56857        19.30206       -21.38122
   C      -21.98229        20.43502       -20.70136
   C      -22.86589        19.10939       -22.71969
   C      -23.79702        18.03274       -22.81771
   C      -24.37438        17.65165       -24.04900
   N      -25.26465        16.70074       -24.28512
   S      -25.63767        16.72707       -25.85933
   N      -24.67902        17.95377       -26.30122
   C      -24.02926        18.38412       -25.23107
   C      -23.05332        19.40125       -25.14332
   C      -22.41751        19.73717       -23.91197
   N      -21.44787        20.69365       -24.17093
   C      -20.27731        21.07063       -23.40766
   C      -19.40166        19.86131       -23.09113
   C      -21.47702        20.96261       -25.51275
   C      -22.46466        20.19296       -26.13886
   S      -22.57100        20.44736       -27.84480
   C      -21.26702        21.60764       -27.72745
   C      -20.79166        21.77319       -26.41920
   S      -19.51348        22.92695       -26.35842
   C      -19.61023        23.16446       -28.10419
   C      -20.62088        22.40061       -28.67917
   C      -20.90497        22.34269       -30.14149
   C      -19.86629        21.47192       -30.85304
   C      -18.80223        24.11407       -28.76037
   C      -17.62648        24.67249       -28.35135
   C      -16.68197        24.26919       -27.33106
   C      -16.40428        22.99340       -26.90942
   C      -15.42476        22.73799       -25.93184
   N      -14.65134        22.52149       -25.11137
   C      -16.99767        21.84332       -27.46369
   N      -17.42643        20.88979       -27.93897
   C      -15.86897        25.43262       -27.03421
   C      -16.15184        26.45610       -27.99884
   C      -17.20659        25.98871       -28.91248
   O      -17.67758        26.54698       -29.87662
   C      -22.76203        21.71812       -20.97794
   C      -15.39436        27.56863       -27.83032
   S      -14.32841        27.38648       -26.48542
   C      -14.89862        25.79185       -26.15262
   C      -23.66883        13.02180       -12.79379
   S      -23.71977        13.19557       -11.07552
   C      -23.66067        14.94665       -11.16859
   C      -23.54529        15.75966       -10.01135
   S      -23.63806        17.49056       -10.11574
   C      -23.26674        17.63090        -8.42574
   C      -23.08237        16.39826        -7.83145
   C      -23.25892        15.34534        -8.72328
   H       -1.88127        -1.47643         2.10508
   H       -6.04899        -1.86127         0.72333
   H       -7.05820        -0.92332         1.81899
   H       -4.90524        -2.91924         2.69879
   H       -6.64950        -3.18801         2.72130
   H       -5.92936        -1.96990         3.77629
   H       -2.40087         5.33435         2.47641
   H       -2.42649         3.61278         2.81408
   H       -2.43511         7.11845         3.21417
   H       -2.74338         8.81897         2.91593
   H       -2.14982         7.61886         0.79943
   H       -3.75449         8.35021         0.72999
   H       -3.59537         6.61306         0.96886
   H       -7.55229        12.88296         4.98536
   H       -6.41558        14.23339         4.81014
   H       -6.57997        12.36675         7.22820
   H       -7.19796        14.02126         7.16280
   H       -5.45902        13.71572         7.05819
   H       -4.24705        14.68288         4.71834
   H       -3.19485         5.72222         4.89825
   H       -1.62434         4.91475         4.79729
   H       -3.08107         3.98286         5.14782
   H        1.99393        13.12535         5.27684
   H       -5.19533        -5.39782        -1.80095
   H        1.19246        -8.10150         2.95364
   H        0.01963       -10.00696         1.59746
   H       -1.95011        -9.07386         0.16678
   H       -5.44156        20.03086         1.81263
   H       -4.68396        23.25325        -1.42070
   H       -4.08495        23.17246         0.23408
   H       -5.72354        25.41567        -1.05022
   H       -4.05761        25.49958        -0.47728
   H       -5.38822        25.36396         0.67410
   H      -12.08406        20.64664         0.06221
   H      -10.35372        20.44237         0.27076
   H      -13.62093        20.11544        -0.96732
   H      -15.28504        20.48105        -1.38437
   H      -13.50666        22.43330         0.16580
   H      -14.70193        21.34969         0.89400
   H      -15.21651        22.62644        -0.20969
   H      -19.35097        21.41455        -6.83600
   H      -17.71960        21.80292        -7.38295
   H      -19.42098        23.75807        -5.76244
   H      -19.28619        23.75875        -7.52183
   H      -17.86729        24.07315        -6.52099
   H      -19.22244        18.57911        -4.37266
   H      -11.81320        19.61986        -2.29198
   H      -11.35868        18.51511        -0.98528
   H      -10.11418        19.35836        -1.90886
   H      -23.31840        22.45142        -7.47627
   H       -1.34131        24.77792         3.29944
   H        2.70897        18.27532         4.42539
   H        2.02275        20.74193         3.94726
   H      -23.30979        18.18126       -15.13389
   H      -24.93420        14.55919       -17.02339
   H      -25.88973        15.04646       -18.42132
   H      -26.10405        16.28409       -15.62486
   H      -27.23735        15.13809       -16.34537
   H      -27.06033        16.75470       -17.03108
   H      -20.92864        20.53625       -20.96119
   H      -22.02672        20.21202       -19.63253
   H      -20.56221        21.61322       -22.50659
   H      -19.71225        21.76681       -24.03236
   H      -18.53557        20.17285       -22.51365
   H      -19.05276        19.40505       -24.01468
   H      -19.95089        19.11052       -22.52772
   H      -20.88979        23.34824       -30.56752
   H      -21.89961        21.91703       -30.28703
   H      -18.86883        21.88432       -30.72115
   H      -20.08827        21.42005       -31.91554
   H      -19.87486        20.46502       -30.44385
   H      -19.21114        24.52874       -29.67733
   H      -22.80668        21.93231       -22.04319
   H      -22.29086        22.55481       -20.46936
   H      -23.78063        21.61947       -20.60987
   H      -15.38690        28.47454       -28.40243
   H      -14.48682        25.24251       -25.32976
   H      -23.67704        12.03778       -13.21832
   H      -22.81569        16.28079        -6.79725
   H      -23.15842        14.30677        -8.46118
*
