# ORCA input file
# SCF done       -365.040212363795          0.000777580114
! CAM-B3LYP def2-SVP def2/J RIJCOSX Grid4 TightSCF
%maxcore 5000
%tddft
    Mode sTDDFT
    Ethresh 5.0
    maxcore 5000
end

%pal
  nprocs 6
  end
* xyz 0 1
   C        4.95110         2.91956        -2.22299
   O        4.22887         3.47438        -1.42804
   C        5.52191         3.44463        -3.47316
   C        6.24533         2.42993        -4.09369
   C        6.17779         1.20363        -3.35459
   C        6.51341        -0.03179        -3.85655
   C        7.13681        -0.14865        -5.11480
   N        7.66427        -0.24558        -6.12971
   C        6.20014        -1.26381        -3.25798
   N        5.92313        -2.30136        -2.85048
   C        5.49681         1.53137        -2.11098
   C        5.34772         0.84650        -0.94787
   C        6.02359        -0.31483        -0.49309
   S        5.09019        -1.43873         0.48835
   C        6.44485        -2.49378         0.60930
   C        7.57055        -1.95062        -0.01941
   C        7.34133        -0.71631        -0.64885
   C        8.41944         0.09480        -1.29247
   C        9.57578         0.36311        -0.32874
   S        8.97558        -2.98693         0.07884
   C        8.03582        -4.14669         0.94939
   C        6.70941        -3.75569         1.15301
   N        6.03149        -4.72850         1.83466
   C        4.76169        -4.41344         2.45089
   C        6.91754        -5.76296         2.08817
   C        8.19073        -5.39854         1.56107
   C        9.34065        -6.19340         1.76200
   N       10.58246        -5.96551         1.36412
   S       11.52678        -7.15458         1.92387
   N       10.38743        -8.00788         2.69511
   C        9.22625        -7.39168         2.53995
   C        7.94802        -7.79532         2.98500
   C        6.77558        -7.03256         2.70889
   N        5.67742        -7.74773         3.15632
   C        4.27856        -7.62464         2.81064
   C        4.06592        -7.69436         1.30064
   C        6.13502        -8.91133         3.71279
   C        7.53251        -8.96157         3.64197
   S        8.21582       -10.39167         4.33079
   C        6.60213       -10.94919         4.71203
   C        5.60109       -10.05062         4.31700
   S        4.03375       -10.65064         4.70519
   C        4.73666       -12.11407         5.40029
   C        6.12375       -12.12042         5.30530
   C        7.00070       -13.18950         5.86226
   C        7.14646       -13.02127         7.37678
   C        3.91106       -13.16651         5.84534
   C        2.59669       -13.11109         6.20156
   C        1.75954       -11.98329         6.55837
   C        2.13069       -10.82272         7.19062
   C        1.18426        -9.83710         7.52839
   N        0.41788        -9.02102         7.78227
   C        3.44687       -10.56627         7.61964
   N        4.50251       -10.36415         8.02324
   C        0.40818       -12.43022         6.35327
   C        0.35762       -13.79012         6.08022
   C        1.73279       -14.31832         6.08250
   O        2.11330       -15.46380         5.97264
   C        4.88238        -4.32501         3.97005
   C       -0.96674       -14.24768         5.84849
   C       -1.85673       -13.20243         5.98209
   S       -1.13803       -11.69679         6.38542
   S        6.91768         2.93287        -5.58819
   C        6.23314         4.53117        -5.36820
   C        5.51318         4.63859        -4.19478
   C        6.44315         5.53551        -6.35506
   S        5.78211         7.13591        -6.16129
   C        6.45538         7.62860        -7.65869
   C        7.14629         6.62912        -8.27274
   C        7.14198         5.43487        -7.53435
   C       -4.90601       -21.49604         2.29273
   O       -4.43320       -22.59834         2.44585
   C       -4.47083       -20.21716         2.87825
   C       -5.30077       -19.20294         2.40354
   C       -6.24245       -19.69637         1.44574
   C       -6.91127       -18.90360         0.54474
   C       -6.86757       -17.49851         0.66229
   N       -6.85655       -16.35550         0.76683
   C       -7.57882       -19.33311        -0.61636
   N       -8.07028       -19.56963        -1.62769
   C       -6.10275       -21.14834         1.46881
   C       -6.87291       -22.11312         0.91177
   C       -8.16626       -21.94847         0.33408
   S       -8.44839       -22.71228        -1.22368
   C      -10.01365       -22.00051        -1.30547
   C      -10.32800       -21.31810        -0.12560
   C       -9.27432       -21.26682         0.80430
   C       -9.38994       -20.67058         2.17387
   C       -9.89542       -19.22865         2.17255
   S      -11.92223       -20.59804        -0.16135
   C      -12.11333       -21.14583        -1.78959
   C      -11.02639       -21.88171        -2.26361
   N      -11.21706       -22.21099        -3.57689
   C      -10.08747       -22.71233        -4.32575
   C      -12.41697       -21.65222        -3.98802
   C      -12.99847       -20.99093        -2.86496
   C      -14.20084       -20.25735        -2.95373
   N      -14.84532       -19.60540        -1.99843
   S      -16.13535       -18.88081        -2.65572
   N      -15.91987       -19.37019        -4.18402
   C      -14.83097       -20.12181        -4.23182
   C      -14.26319       -20.78242        -5.34214
   C      -13.09720       -21.59813        -5.23712
   N      -12.83704       -22.13199        -6.49003
   C      -12.02571       -23.25812        -6.89377
   C      -12.48274       -24.54582        -6.21195
   C      -13.78613       -21.65978        -7.35560
   C      -14.67426       -20.81904        -6.68115
   S      -15.89904       -20.14332        -7.69526
   C      -15.21379       -20.99854        -9.05927
   C      -14.08765       -21.75738        -8.71786
   S      -13.40345       -22.51244       -10.10449
   C      -14.67736       -21.85401       -11.12686
   C      -15.56077       -21.05209       -10.41786
   C      -16.63275       -20.19286       -11.01358
   C      -17.99944       -20.40026       -10.36072
   C      -14.56581       -22.12051       -12.51585
   C      -15.53492       -22.28694       -13.45317
   C      -16.95856       -22.54886       -13.33485
   C      -17.62841       -23.13919       -12.29340
   C      -19.01151       -23.39830       -12.37592
   N      -20.14055       -23.59582       -12.43186
   C      -17.01643       -23.60591       -11.11575
   N      -16.56452       -24.04363       -10.15539
   C      -17.50928       -22.30783       -14.64226
   C      -16.50845       -22.08596       -15.57909
   C      -15.20289       -22.13349       -14.90350
   O      -14.09666       -22.03860       -15.38257
   C       -9.39689       -21.59145        -5.09903
   C      -17.00897       -21.90240       -16.87914
   C      -18.36962       -21.98919       -16.89577
   S      -19.06951       -22.30608       -15.34864
   S       -4.83228       -17.65934         2.97738
   C       -3.49677       -18.37828         3.85361
   C       -3.44427       -19.75183         3.70019
   C       -2.57672       -17.53502         4.53860
   S       -2.91548       -15.84230         4.74151
   C       -1.35920       -15.57647         5.46699
   C       -0.64425       -16.74707         5.55172
   C       -1.33124       -17.85052         5.03895
   H        4.61335         1.26475        -0.26472
   H        8.01117         1.04932        -1.62749
   H        8.79810        -0.44390        -2.16697
   H        9.21411         0.87438         0.56073
   H       10.31674         0.99371        -0.81336
   H       10.05666        -0.56307        -0.02775
   H        3.99736        -5.12914         2.14752
   H        4.46026        -3.43964         2.05721
   H        3.85530        -6.71492         3.23687
   H        3.76717        -8.46595         3.28507
   H        3.00932        -7.58773         1.07072
   H        4.40691        -8.65502         0.92142
   H        4.61899        -6.91234         0.78611
   H        7.98245       -13.11779         5.39049
   H        6.57892       -14.17303         5.64447
   H        7.57653       -12.05026         7.60787
   H        7.79506       -13.79568         7.77740
   H        6.17572       -13.08764         7.86223
   H        4.34008       -14.16268         5.79775
   H        5.24892        -5.25689         4.39406
   H        3.91320        -4.09806         4.40568
   H        5.57726        -3.53375         4.24168
   H       -2.92204       -13.25637         5.86467
   H        5.00836         5.53753        -3.89145
   H        6.29937         8.63337        -7.99772
   H        7.64046         6.74350        -9.22040
   H        7.62959         4.52887        -7.84795
   H       -6.45032       -23.11309         0.89849
   H       -8.42368       -20.72840         2.67844
   H      -10.09707       -21.28256         2.74321
   H       -9.27070       -18.58795         1.55530
   H       -9.88849       -18.83776         3.18712
   H      -10.91137       -19.17790         1.79146
   H      -10.39035       -23.53376        -4.97167
   H       -9.38791       -23.12328        -3.59348
   H      -10.96987       -23.05333        -6.71951
   H      -12.15536       -23.36153        -7.97385
   H      -12.46373       -24.44721        -5.12865
   H      -11.83840       -25.37073        -6.50389
   H      -13.50127       -24.78010        -6.51238
   H      -16.69545       -20.36872       -12.08806
   H      -16.33756       -19.14875       -10.86643
   H      -18.29500       -21.44597       -10.37896
   H      -18.75180       -19.81998       -10.88928
   H      -17.97940       -20.07594        -9.32403
   H      -13.55068       -22.16261       -12.90223
   H      -10.08909       -21.10104        -5.78036
   H       -8.56188       -21.99068        -5.66842
   H       -9.01742       -20.84681        -4.40313
   H      -16.40143       -21.71967       -17.74592
   H      -19.02146       -21.89016       -17.74171
   H       -2.69720       -20.37659         4.15235
   H        0.35141       -16.79357         5.95416
   H       -0.92179       -18.84353         5.00955
*
