# ORCA input file
# SCF done       -232.089589710350          0.000519003084
! wb97x-d3 def2-SVP def2/J RIJCOSX Grid4 TightSCF
%maxcore 5000
%tddft
    Mode sTDA
    Ethresh 5.0
    maxcore 5000
end

%pal
  nprocs 6
  end
* xyz 1 2
   C        2.32145        -1.96431        -0.84987
   C        2.32818        -1.45418         0.47092
   C        1.42743        -0.47480         0.88391
   C        0.44946        -0.10877        -0.00995
   C        0.35579        -0.73085        -1.27837
   C        1.32659        -1.61990        -1.73357
   C        3.42623        -2.99210        -1.03647
   C        3.86858        -3.18664         0.39257
   C        3.27508        -2.23150         1.20546
   C        4.64900        -4.09758         1.09371
   C        4.62018        -3.86295         2.46043
   S        3.67594        -2.43976         2.85997
   C       -0.72139         0.83533         0.21393
   C       -1.60838         0.45711        -0.94682
   C       -0.91714        -0.37266        -1.81784
   C       -2.92835         0.67262        -1.32371
   C       -3.26172        -0.02959        -2.47240
   S       -1.88728        -0.89836        -3.13043
   C       -1.32402         0.59924         1.58111
   C       -0.34243         2.29465         0.00748
   C        2.87307        -4.22993        -1.70829
   C        4.62312        -2.43474        -1.79278
   C        5.41403        -5.97984         5.62157
   C        5.28036        -6.34373         6.97561
   C        5.45300        -7.54394         7.60098
   C       -7.36761        -2.01526        -4.95550
   C       -8.69246        -2.33442        -4.89220
   C       -9.73357        -1.93108        -3.95986
   N      -10.90174        -2.65361        -4.18952
   C      -10.88042        -3.53492        -5.22180
   S       -9.33198        -3.51962        -6.02850
   C        5.82886        -8.85067         7.08456
   N        5.72225        -9.81916         8.07969
   C        5.33104        -9.39170         9.30709
   S        5.07735        -7.66417         9.31846
   C        5.97089       -11.20530         7.72798
   O        6.19263        -9.13341         5.96184
   C        5.13945       -10.12736        10.45063
   C        4.73229        -9.47202        11.63150
   C        5.29409       -11.51614        10.59411
   C        2.84624        -4.31124        -3.09548
   C        2.30080        -5.41413        -3.72361
   C        1.76370        -6.46197        -2.98671
   C        1.78314        -6.37108        -1.60167
   C        2.32321        -5.26669        -0.96801
   C        5.65899        -3.29506        -2.13728
   C        6.78023        -2.81953        -2.78801
   C        6.90246        -1.47216        -3.10496
   C        5.86765        -0.61691        -2.75378
   C        4.74203        -1.08809        -2.10149
   C       -0.84439         1.29729         2.68272
   C       -1.35435         1.05468         3.94386
   C       -2.34938         0.10605         4.14073
   C       -2.81669        -0.59726         3.03857
   C       -2.30731        -0.36077         1.77504
   C       -1.28432         3.27890         0.28342
   C       -0.99604         4.61034         0.05771
   C        0.23561         4.99564        -0.45761
   C        1.17177         4.00886        -0.73198
   C        0.88817         2.67330        -0.50763
   O       -9.66225        -1.10605        -3.07280
   C      -12.05928        -2.38948        -3.35447
   C      -11.87327        -4.38336        -5.64592
   C      -11.62879        -5.23623        -6.74250
   C      -13.15670        -4.52168        -5.09193
   N        4.39712        -8.94995        12.59645
   N        5.39432       -12.64522        10.78172
   N      -14.22094        -4.68673        -4.69138
   N      -11.44075        -5.93422        -7.63319
   C       -2.93907        -0.11747         5.50309
   C        0.56184         6.44611        -0.66692
   C        8.10004        -0.96393        -3.85426
   C        1.22210        -7.68188        -3.67390
   C        2.34244        -8.69291        -3.92670
   C        7.85216        -1.02810        -5.36285
   C        1.18171         7.04372         0.59788
   C       -4.13873         0.80639         5.72285
   C        4.67577       -11.93893         7.39979
   C      -13.03137        -1.42891        -4.02843
   C        5.92417        -6.63493         4.51128
   C        5.75639        -5.93362         3.32734
   C        5.10408        -4.71783         3.48319
   S        4.75306        -4.42361         5.15284
   C       -4.55938        -0.22827        -3.00887
   S       -4.83801        -1.32223        -4.32150
   C       -6.57723        -1.18297        -4.13903
   C       -6.88025        -0.27533        -3.13588
   C       -5.76195         0.25757        -2.51330
   H        1.46660        -0.06909         1.88322
   H        1.26025        -2.05952        -2.71690
   H        5.17254        -4.92542         0.65310
   H       -3.63590         1.26445        -0.77346
   H        4.92286        -5.54378         7.61535
   H       -6.81062        -2.53282        -5.72941
   H        6.61319       -11.17730         6.84334
   H        6.50137       -11.69535         8.54544
   H        3.26334        -3.50863        -3.68694
   H        2.28970        -5.46105        -4.80330
   H        1.36554        -7.17251        -1.00885
   H        2.31635        -5.21366         0.11119
   H        5.57827        -4.34642        -1.90235
   H        7.57493        -3.50315        -3.05074
   H        5.94250         0.43512        -2.98993
   H        3.95264        -0.40025        -1.83618
   H       -0.07208         2.04161         2.55031
   H       -0.97119         1.60882         4.78897
   H       -3.58612        -1.34470         3.17041
   H       -2.67888        -0.92843         0.93404
   H       -2.24631         2.99717         0.68632
   H       -1.74003         5.36240         0.27871
   H        2.13657         4.28616        -1.13248
   H        1.63312         1.92508        -0.73526
   H      -12.54913        -3.33336        -3.11026
   H      -11.66799        -1.93682        -2.43909
   H       -3.26168        -1.15580         5.60158
   H       -2.18725         0.08152         6.26927
   H        1.26455         6.55131        -1.49594
   H       -0.34683         6.99736        -0.91695
   H        8.30574         0.06924        -3.56722
   H        8.97523        -1.56818        -3.60756
   H        0.45141        -8.14535        -3.05502
   H        0.77139        -7.39953        -4.62749
   H        2.79607        -8.99772        -2.98616
   H        1.95233        -9.57624        -4.42663
   H        3.11559        -8.25238        -4.55239
   H        6.99026        -0.42098        -5.63069
   H        8.71885        -0.66054        -5.90708
   H        7.65729        -2.05299        -5.67083
   H        2.09685         6.51569         0.85651
   H        1.41772         8.09428         0.44586
   H        0.49079         6.96009         1.43381
   H       -4.90530         0.61478         4.97527
   H       -4.56760         0.64587         6.70912
   H       -3.83431         1.84756         5.64141
   H        4.16712       -11.44965         6.57200
   H        4.90507       -12.96118         7.11469
   H        4.01139       -11.96589         8.26028
   H      -13.42297        -1.85047        -4.95110
   H      -13.86582        -1.23736        -3.36066
   H      -12.53504        -0.48661        -4.24939
   H        6.38512        -7.60227         4.57742
   H        6.07856        -6.30097         2.37029
   H       -7.89108        -0.03468        -2.86587
   H       -5.81372         0.96277        -1.70414
*
