# ORCA input file
# SCF done       -251.697280458087          0.000663541388
! wb97x-d3 def2-SVP def2/J RIJCOSX Grid4 TightSCF
%maxcore 5000
%tddft
    Mode sTDA
    Ethresh 5.0
    maxcore 5000
end

%pal
  nprocs 6
  end
* xyz 1 2
   C       -2.69400        -0.03911         0.76500
   C       -1.51924        -0.71158         1.01678
   C       -0.28681        -0.04195         0.83746
   C       -0.29191         1.32295         0.44270
   C       -1.51283         1.97021         0.19140
   C       -2.69246         1.29194         0.34135
   C        0.96258        -0.70880         1.03489
   C        2.16503        -0.02101         0.94809
   C        2.15762         1.32330         0.63232
   C        0.95634         1.98361         0.34005
   C       -1.57212        -2.11926         1.58283
   C       -0.25879        -2.82583         1.38185
   C        0.91733        -2.11887         1.23615
   C        3.34610         2.25555         0.50131
   C        2.66624         3.50183         0.00767
   C        1.28898         3.31748        -0.03682
   C        3.02922         4.78810        -0.37181
   C        1.91399         5.58182        -0.71627
   S        0.41269         4.71997        -0.55301
   S        4.49415         5.66117        -0.57635
   C        3.60656         7.09623        -1.08485
   C        2.23563         6.86995        -1.10725
   C        3.98486         2.60335         1.83842
   C        4.35709         1.66482        -0.46038
   C        5.18489         3.30388         1.84531
   C        5.76486         3.68697         3.03861
   C        5.16136         3.38621         4.25348
   C        3.96189         2.68828         4.23861
   C        3.37309         2.30540         3.04675
   C        4.32711         1.96698        -1.81385
   C        5.24001         1.39297        -2.67985
   C        6.19211         0.49363        -2.22057
   C        6.20875         0.18482        -0.86612
   C        5.30449         0.76098         0.00456
   C        4.33751         8.23018        -1.47754
   C        3.91462         9.51250        -1.69998
   C        2.72136        10.23630        -1.33456
   C        2.65771        11.42621        -2.18626
   C        3.87385        11.55004        -2.88014
   C        4.74755        10.39966        -2.54979
   C        1.65782        12.36850        -2.36158
   C        1.90367        13.42126        -3.23085
   C        3.11877        13.54567        -3.90514
   C        4.12229        12.60485        -3.73570
   O        5.87885        10.19932        -2.92575
   F        3.31443        14.58275        -4.72837
   F        0.94742        14.33568        -3.42799
   C        1.93269        10.01935        -0.23335
   C        0.82629        10.82087         0.11351
   C        2.18973         9.01878         0.72503
   N       -0.09597        11.42846         0.42601
   N        2.37880         8.24049         1.54710
   C        5.81427         3.76429         5.55104
   C        6.74520         2.64660         6.02600
   C        7.21387        -0.09195        -3.15136
   C        8.47996         0.76725        -3.16008
   C       -0.01807        -4.20561         1.40478
   C        1.34211        -4.54171         1.29560
   S        2.33988        -3.13607         1.16170
   S       -0.99527        -5.61994         1.46434
   C        0.43001        -6.64990         1.39874
   C        1.59681        -5.90446         1.30424
   C        0.24481        -8.04419         1.35821
   C        1.15086        -9.05160         1.53833
   C        2.47497        -9.09612         2.11171
   C        3.10285       -10.33793         1.65579
   C        2.12905       -11.13067         1.02347
   C        0.84198       -10.39737         0.99165
   C        4.40337       -10.79894         1.77703
   C        4.69878       -12.05187         1.25998
   C        3.72434       -12.83818         0.64435
   C        2.42140       -12.38240         0.51946
   O       -0.22157       -10.78813         0.57132
   F        4.05322       -14.04372         0.16534
   F        5.95124       -12.51170         1.35203
   C        2.96726        -8.28465         3.10145
   C        4.24423        -8.43438         3.67951
   C        2.21596        -7.26075         3.71295
   N        5.28246        -8.49961         4.16442
   N        1.62785        -6.44212         4.26172
   C       -2.69057        -2.88768         0.90056
   C       -1.72947        -2.05842         3.10715
   C       -2.48023        -3.37902        -0.38260
   C       -3.47833        -4.06271        -1.04928
   C       -4.71848        -4.26555        -0.45839
   C       -4.93572        -3.74560         0.81027
   C       -3.93876        -3.06263         1.48221
   C       -1.53714        -0.88243         3.81916
   C       -1.62565        -0.87321         5.20005
   C       -1.89438        -2.03395         5.91065
   C       -2.08221        -3.20985         5.19545
   C       -1.99746        -3.22386         3.81733
   C       -5.81582        -4.97613        -1.19598
   C       -6.64131        -3.98135        -2.01474
   C       -2.02549        -2.01276         7.40560
   C       -3.47840        -1.75704         7.81190
   H       -3.63748        -0.54364         0.90629
   H       -1.50717         3.00612        -0.11143
   H       -3.63259         1.78585         0.14860
   H        3.09373        -0.54489         1.11787
   H        1.51753         7.59461        -1.44518
   H        5.66843         3.54499         0.90938
   H        6.69684         4.23319         3.02575
   H        3.47454         2.44476         5.17182
   H        2.43430         1.77136         3.06447
   H        3.58904         2.65605        -2.19846
   H        5.20816         1.64651        -3.72986
   H        6.93930        -0.51595        -0.48810
   H        5.34316         0.51839         1.05671
   H        5.38105         8.05498        -1.72261
   H        0.70319        12.31287        -1.86416
   H        5.06161        12.69859        -4.25688
   H        6.39048         4.68228         5.42144
   H        5.05097         3.94363         6.31065
   H        7.52200         2.46156         5.28738
   H        7.21797         2.91962         6.96641
   H        6.18629         1.72498         6.17274
   H        7.46880        -1.10424        -2.83113
   H        6.80748        -0.14512        -4.16323
   H        8.90797         0.82031        -2.16161
   H        9.22146         0.34515        -3.83416
   H        8.24852         1.77855        -3.48680
   H        2.57456        -6.33517         1.18856
   H       -0.74560        -8.37813         1.06304
   H        5.18944       -10.22639         2.24198
   H        1.66739       -12.98883         0.04360
   H       -1.52518        -3.22216        -0.86511
   H       -3.29110        -4.44502        -2.04249
   H       -5.89889        -3.87738         1.28223
   H       -4.13637        -2.66532         2.46706
   H       -1.31982         0.04136         3.30466
   H       -1.47561         0.05588         5.73154
   H       -2.28939        -4.12968         5.72257
   H       -2.15178        -4.15273         3.28998
   H       -5.38736        -5.72486        -1.86493
   H       -6.46908        -5.48599        -0.48528
   H       -6.00910        -3.46786        -2.73602
   H       -7.43402        -4.49667        -2.55190
   H       -7.09139        -3.23560        -1.36301
   H       -1.69948        -2.96957         7.81801
   H       -1.39212        -1.22661         7.82139
   H       -3.81892        -0.80147         7.41860
   H       -4.12499        -2.53875         7.41923
   H       -3.57256        -1.74026         8.89510
*
