# ORCA input file
# SCF done       -254.434655426990          0.000738524371
! wb97x-d3 def2-SVP def2/J RIJCOSX Grid4 TightSCF
%maxcore 5000
%tddft
    Mode sTDA
    Ethresh 5.0
    maxcore 5000
end

%pal
  nprocs 6
  end
* xyz 1 2
   C       -0.84446        -0.99189        -0.59516
   C       -1.33897         0.03807         0.24644
   C       -0.56108         0.47061         1.34847
   C        0.63869        -0.19901         1.56607
   C        1.13982        -1.22488         0.69534
   C        0.39318        -1.58884        -0.44050
   S        1.70065         0.03324         2.96170
   C        2.70182        -1.25588         2.42846
   C        2.32850        -1.79909         1.21137
   C        3.77802        -1.98000         2.98826
   C        4.08981        -3.03388         2.11729
   C        3.24297        -2.96001         0.85935
   C        2.40702        -4.21041         0.66074
   C        4.24350        -2.64131        -0.23568
   C        1.67816        -4.68305         1.74647
   C        0.85694        -5.78555         1.61862
   C        0.73758        -6.44526         0.40225
   C        1.46777        -5.96983        -0.67738
   C        2.29227        -4.86667        -0.55436
   C        5.08754        -3.63663        -0.71461
   C        6.05406        -3.34551        -1.65785
   C        6.21901        -2.05230        -2.13803
   C        5.39673        -1.05474        -1.63375
   C        4.42463        -1.34160        -0.69158
   C       -0.20395        -7.60350         0.24367
   C       -1.58814        -7.10420        -0.17603
   C        7.30225        -1.73020        -3.12572
   C        8.59301        -1.35191        -2.39612
   S        4.70827        -1.97292         4.42159
   C        5.55449        -3.41326         3.86648
   C        5.09398        -3.83283         2.60671
   C        6.55947        -4.10782         4.54661
   C        7.12493        -3.88637         5.77988
   C        6.75540        -2.81567         6.70982
   C        7.58207        -3.01665         7.91465
   C        8.41528        -4.13307         7.72415
   C        8.16176        -4.68968         6.39278
   O        5.93242        -1.93298         6.54010
   C        8.81486        -5.76845         5.85448
   C        8.59979        -6.30759         4.56888
   C        9.81952        -6.50036         6.52251
   N        8.49346        -6.80471         3.53848
   N       10.64335        -7.13776         7.00473
   C        7.59802        -2.28146         9.08430
   C        8.46521        -2.66662        10.09463
   C        9.28165        -3.76981         9.89692
   C        9.28360        -4.52262         8.72975
   S       -1.98606        -1.50388        -1.81681
   C       -3.10955        -0.33852        -1.21889
   C       -2.64072         0.41594        -0.15284
   C       -4.42521         0.06014        -1.54136
   C       -4.79660         1.11739        -0.69763
   C       -3.65497         1.47057         0.23409
   C       -4.15305         1.38941         1.65866
   C       -3.06161         2.81824        -0.16985
   C       -3.83810         0.31242         2.47474
   C       -4.32400         0.24546         3.76821
   C       -5.15059         1.23956         4.27383
   C       -5.49597         2.29552         3.43934
   C       -5.01180         2.36792         2.14718
   C       -2.70482         3.78351         0.75675
   C       -2.14796         4.98128         0.34465
   C       -1.93192         5.24821        -0.99935
   C       -2.27833         4.27151        -1.92451
   C       -2.83154         3.07347        -1.51758
   C       -5.61660         1.20001         5.70037
   C       -4.60338         1.89955         6.60959
   C       -1.29589         6.53426        -1.44201
   C        0.22281         6.37626        -1.53956
   S       -5.66297        -0.38168        -2.62619
   C       -6.72179         0.86233        -1.93823
   C       -6.07916         1.56878        -0.92083
   C       -8.00515         0.94620        -2.49367
   C       -9.09304         1.72747        -2.18254
   C       -9.24228         2.71724        -1.09569
   C      -10.65535         3.14593        -1.13515
   C      -11.31869         2.49889        -2.18948
   C      -10.36050         1.63831        -2.88539
   O       -8.41265         3.12820        -0.30818
   C      -10.64558         0.92159        -4.01927
   C       -9.74726         0.12920        -4.76572
   C      -11.91354         0.89330        -4.63893
   N       -9.09926        -0.53046        -5.44785
   N      -12.91547         0.81285        -5.19350
   C      -11.30152         4.03533        -0.29779
   C      -12.64762         4.28475        -0.51082
   C      -13.29463         3.63590        -1.55179
   C      -12.66481         2.74243        -2.40757
   F      -14.60111         3.88381        -1.74273
   F       10.11482        -4.13148        10.88592
   O        0.77151        -2.56043        -1.32996
   C        1.59237        -2.13727        -2.41621
   C        0.96420        -1.08160        -3.31712
   O       -1.10338         1.46931         2.07834
   C       -0.62643         1.75593         3.38308
   C       -1.53605         2.78459         4.03483
   H        1.75302        -4.18020         2.70103
   H        0.29861        -6.13711         2.47474
   H        1.38807        -6.46655        -1.63374
   H        2.84056        -4.51799        -1.41479
   H        4.98840        -4.64643        -0.34602
   H        6.69518        -4.13497        -2.02259
   H        5.51636        -0.03782        -1.97957
   H        3.80839        -0.54132        -0.30600
   H        0.17640        -8.28984        -0.51539
   H       -0.28702        -8.14783         1.18659
   H       -1.52428        -6.56065        -1.11588
   H       -2.27311        -7.93958        -0.30122
   H       -1.99220        -6.43247         0.57809
   H        7.49060        -2.59548        -3.76406
   H        6.99021        -0.89793        -3.75990
   H        8.92778        -2.17447        -1.76822
   H        9.37863        -1.11775        -3.11041
   H        8.42905        -0.48325        -1.76224
   H        5.49883        -4.70095         2.11868
   H        6.92813        -4.96205         3.99187
   H        6.94561        -1.42986         9.19768
   H        8.51846        -2.12981        11.02841
   H        9.94526        -5.36857         8.64638
   H       -3.20843        -0.48278         2.10482
   H       -4.05813        -0.59554         4.39315
   H       -6.15627         3.06916         3.80363
   H       -5.30037         3.19422         1.51545
   H       -2.86585         3.60240         1.80493
   H       -1.88207         5.72415         1.08387
   H       -2.11701         4.45248        -2.97773
   H       -3.08953         2.33309        -2.26130
   H       -6.58361         1.69844         5.78847
   H       -5.73464         0.16398         6.02390
   H       -4.47902         2.93794         6.30979
   H       -4.93943         1.87480         7.64338
   H       -3.63544         1.40680         6.54770
   H       -1.68996         6.82407        -2.41813
   H       -1.53028         7.32776        -0.72976
   H        0.47718         5.59863        -2.25639
   H        0.68264         7.30814        -1.86004
   H        0.63703         6.09848        -0.57283
   H       -6.56722         2.36429        -0.39004
   H       -8.15576         0.24210        -3.30350
   H      -10.75930         4.51681         0.50092
   H      -13.20200         4.96799         0.11276
   H      -13.23245         2.27513        -3.19456
   H        2.55149        -1.76790        -2.03449
   H        1.76463        -3.05477        -2.98215
   H        0.76071        -0.16793        -2.76142
   H        1.65875        -0.85027        -4.12040
   H        0.03575        -1.44589        -3.74869
   H       -0.62646         0.83781         3.98275
   H        0.39430         2.15396         3.33570
   H       -2.56601         2.44001         4.01858
   H       -1.22482         2.92601         5.06621
   H       -1.46546         3.73560         3.51573
*
