# ORCA input file
# SCF done       -160.730631882076          0.000667639962
! wb97x-d3 def2-SVP def2/J RIJCOSX Grid4 TightSCF
%maxcore 5000
%tddft
    Mode sTDA
    Ethresh 5.0
    maxcore 5000
end

%pal
  nprocs 6
  end
* xyz 1 2
   C        0.94542        -2.57433        -1.86172
   C        1.90657        -3.23611        -2.62020
   C        2.89888        -2.58249        -3.33899
   C        3.01796        -1.19608        -3.35880
   C        2.06454        -0.47916        -2.58385
   C        1.03492        -1.15451        -1.84174
   N        1.99289         0.84272        -2.44860
   S        0.75865         1.20330        -1.48582
   N        0.25228        -0.29322        -1.19322
   C        3.99464        -0.44392        -4.07962
   C        4.97476        -0.89437        -4.91050
   C        5.84147         0.03371        -5.53472
   C        5.25144        -2.23387        -5.25403
   N        6.54218         0.78655        -6.04103
   N        5.52495        -3.30175        -5.57463
   C       -6.63378       -12.64038         2.26794
   C       -6.00534       -13.87241         2.11407
   C       -6.63254       -15.08282         2.37904
   C       -7.95804       -15.16633         2.78967
   C       -8.61902       -13.93330         3.01892
   C       -7.96872       -12.67661         2.75959
   N       -9.83342       -13.76873         3.53560
   S      -10.15196       -12.20218         3.64213
   N       -8.75757       -11.64725         3.06615
   C       -8.59209       -16.43704         2.97688
   C       -9.91987       -16.70438         2.86859
   C      -10.39723       -18.01313         3.11653
   C      -10.91859       -15.81901         2.40257
   N      -10.77411       -19.07504         3.32782
   N      -11.77045       -15.20962         1.93447
   C       -0.07930        -3.27622        -1.15585
   C       -1.10481        -2.76090        -0.39087
   C       -1.94981        -3.73640         0.13500
   C       -1.59279        -5.02430        -0.20570
   S       -0.17159        -5.01598        -1.20137
   C       -2.24232        -6.26084         0.15194
   C       -1.59650        -7.48800        -0.05327
   C       -2.19550        -8.68544         0.27506
   C       -3.47211        -8.66091         0.82099
   C       -4.13634        -7.43297         1.03504
   C       -3.53494        -6.24734         0.70091
   C       -4.36480        -9.69561         1.23854
   C       -5.56716        -9.16097         1.67736
   C       -5.52949        -7.65589         1.60165
   S       -4.34043       -11.40647         1.32351
   C       -5.97863       -11.40853         1.96125
   C       -6.47969       -10.12537         2.08967
   C       -5.72914        -7.10803         3.00216
   C       -6.52820        -7.06919         0.62071
   C       -4.66784        -6.68411         3.78765
   C       -4.88961        -6.22661         5.07483
   C       -6.16831        -6.19415         5.61254
   C       -7.22616        -6.63265         4.82509
   C       -7.01155        -7.08629         3.53883
   C       -7.03874        -7.82797        -0.42294
   C       -7.90141        -7.26333        -1.34401
   C       -8.26677        -5.92698        -1.25524
   C       -7.74898        -5.17045        -0.21203
   C       -6.88864        -5.73076         0.71286
   C       -6.41279        -5.65325         6.99169
   C       -6.74169        -4.16016         6.92929
   C       -9.23616        -5.32898        -2.23324
   C      -10.67353        -5.51803        -1.74406
   H        1.87413        -4.31538        -2.65536
   H        3.59777        -3.18053        -3.90136
   H        3.92621         0.62840        -3.93952
   H       -4.98298       -13.88617         1.76527
   H       -6.08085       -15.99808         2.22032
   H       -7.93478       -17.27220         3.19118
   H       -1.22236        -1.70503        -0.23119
   H       -2.79142        -3.50338         0.76161
   H       -0.60306        -7.48689        -0.47778
   H       -1.68831        -9.62370         0.10968
   H       -4.05729        -5.31504         0.84375
   H       -7.46760        -9.93725         2.46561
   H       -3.66108        -6.70744         3.39654
   H       -4.05158        -5.89422         5.67104
   H       -8.22951        -6.62132         5.22633
   H       -7.84603        -7.41862         2.93879
   H       -6.76398        -8.86823        -0.51888
   H       -8.29232        -7.87059        -2.14790
   H       -8.01989        -4.12777        -0.12422
   H       -6.50309        -5.12592         1.52120
   H       -7.24595        -6.18529         7.45521
   H       -5.52578        -5.80085         7.61071
   H       -7.63113        -3.99351         6.32573
   H       -6.92068        -3.76767         7.92751
   H       -5.91680        -3.60962         6.48233
   H       -9.03326        -4.26268        -2.35124
   H       -9.12199        -5.80866        -3.20737
   H      -10.81129        -5.03506        -0.77920
   H      -11.37642        -5.08633        -2.45261
   H      -10.89865        -6.57618        -1.63192
*
