# ORCA input file
# SCF done       -365.855519991954          0.000344321787
! wb97x-d3 def2-SVP def2/J RIJCOSX Grid4 TightSCF
%maxcore 5000
%tddft
    Mode sTDA
    Ethresh 5.0
    maxcore 5000
end

%pal
  nprocs 6
  end
* xyz 1 2
   C        4.88896         0.00168         1.99884
   C        4.07816        -0.84743         1.20852
   C        6.17642        -0.61022         2.08196
   C        6.19510        -1.80591         1.38093
   C        4.84849        -2.07970         0.76730
   C        5.03993        -2.18638        -0.73572
   C        4.16355        -3.31162         1.32982
   C        5.52911        -3.37375        -1.26772
   C        5.76622        -3.48883        -2.62325
   C        5.52424        -2.42426        -3.48253
   C        5.04437        -1.23862        -2.94402
   C        4.81209        -1.11438        -1.58576
   C        3.10627        -3.89043         0.63932
   C        2.45332        -4.99379         1.15396
   C        2.83689        -5.54838         2.36823
   C        3.88599        -4.95851         3.05946
   C        4.54025        -3.85164         2.55082
   C        5.72866        -2.56920        -4.96304
   C        4.44946        -3.07983        -5.62967
   C        2.10288        -6.72551         2.94266
   C        0.93919        -6.25474         3.81742
   S        7.69793        -0.17521         2.78432
   C        8.39717        -1.62113         2.10073
   C        7.45853        -2.38921         1.37348
   C        4.42180         1.21939         2.49001
   C        3.14337         1.58646         2.14522
   C        2.32813         0.73079         1.36579
   C        2.78168        -0.50231         0.90625
   C        2.41699         2.88395         2.46337
   C        1.12594         2.67515         1.71702
   C        1.10528         1.42753         1.12064
   C        2.24486         2.98025         3.96737
   C        3.07801         4.12285         1.88795
   C        0.00878         3.43344         1.36769
   C       -0.86526         2.73232         0.51437
   S       -0.30388         1.12847         0.15722
   S       -0.50261         5.07001         1.64246
   C       -1.84552         4.81117         0.57655
   C       -1.91800         3.52782         0.06609
   C       -2.84208         5.64445        -0.01952
   C       -3.58098         4.83101        -0.91282
   C       -3.09951         3.39121        -0.85660
   C       -4.08316         2.45051        -0.17966
   C       -2.74091         2.91813        -2.25025
   C       -3.07531         7.01219         0.09204
   C       -4.02051         7.55903        -0.74449
   C       -4.73991         6.74950        -1.65531
   C       -4.53769         5.37304        -1.73595
   C       -4.42209         9.01799        -0.87914
   C       -5.41310         8.93415        -2.00866
   C       -5.57323         7.61976        -2.42173
   C       -5.03506         9.47177         0.43347
   C       -3.29796         9.93815        -1.32033
   C       -6.14541         9.81403        -2.79700
   C       -6.87705         9.14923        -3.80837
   S       -6.64585         7.42167        -3.76379
   C        3.27725         3.48348         4.74933
   C        3.15278         3.53866         6.12389
   C        1.99926         3.09009         6.75483
   C        0.97284         2.58493         5.96917
   C        1.09369         2.52423         4.59283
   C        3.99616         4.04670         0.85074
   C        4.52942         5.19960         0.30296
   C        4.14890         6.45270         0.76289
   C        3.21918         6.52290         1.79265
   C        2.68763         5.37514         2.34734
   C       -5.19568         2.91470         0.50595
   C       -6.04092         2.02660         1.14736
   C       -5.79141         0.66156         1.13140
   C       -4.66940         0.20406         0.45127
   C       -3.82390         1.08496        -0.19368
   C       -1.46513         3.10541        -2.76310
   C       -1.15651         2.68878        -4.04469
   C       -2.11474         2.09041        -4.85122
   C       -3.39557         1.92393        -4.34063
   C       -3.70767         2.33339        -3.05843
   C       -4.21421         9.92284         1.45947
   C       -4.75449        10.30959         2.67060
   C       -6.12456        10.25234         2.89236
   C       -6.93886         9.79183         1.86711
   C       -6.40284         9.40001         0.65409
   C       -2.12540         9.45092        -1.87814
   C       -1.14544        10.32444        -2.31535
   C       -1.31572        11.69839        -2.21857
   C       -2.50106        12.18016        -1.67683
   C       -3.48027        11.31346        -1.23311
   C        1.84734         3.19822         8.24461
   C        1.24919         4.55477         8.62304
   C        4.76138         7.70075         0.19579
   C        6.00929         8.09084         0.99046
   C       -6.73626        -0.30142         1.79049
   C       -7.81586        -0.74996         0.80339
   C       -1.76206         1.58830        -6.22147
   C       -1.27196         0.14068        -6.14708
   C       -6.71415        10.72835         4.18824
   C       -7.03355        12.22273         4.10954
   C       -0.27074        12.64352        -2.73702
   C       -0.56184        13.01289        -4.19295
   C       10.94621        -4.03082         1.18778
   C       11.24127        -5.16382         0.46612
   C       10.29079        -5.94904        -0.32621
   C       11.07967        -7.03218        -0.94855
   C       12.42223        -6.91864        -0.54971
   C       12.55334        -5.76480         0.34097
   O        9.09438        -5.76802        -0.45984
   C       13.72319        -5.35775         0.93066
   C       13.87567        -4.25470         1.79632
   C       14.96542        -6.00203         0.75040
   N       14.09283        -3.37919         2.50804
   N       16.00715        -6.47360         0.64821
   C       10.65057        -8.03182        -1.79622
   C       11.58763        -8.94586        -2.26210
   C       12.92632        -8.84205        -1.87187
   C       13.35312        -7.83199        -1.01554
  Cl       11.09611       -10.20552        -3.32121
  Cl       14.07570        -9.97762        -2.45514
   C       -7.90197        12.52168        -4.86054
   C       -8.69265        12.78036        -5.95455
   C       -9.35529        11.81980        -6.85875
   C      -10.08338        12.64181        -7.84959
   C       -9.88425        14.00366        -7.57532
   C       -9.01703        14.12351        -6.40403
   O       -9.34425        10.60584        -6.83394
   C       -8.59250        15.31553        -5.87381
   C       -7.73267        15.49490        -4.76923
   C       -8.95897        16.58071        -6.38137
   N       -7.03775        15.75445        -3.89147
   N       -9.21138        17.64390        -6.73321
   C      -10.85735        12.21306        -8.90782
   C      -11.45140        13.17165        -9.71870
   C      -11.26037        14.53161        -9.45425
   C      -10.47910        14.95740        -8.38541
  Cl      -12.00004        15.70889       -10.46339
  Cl      -12.42124        12.68226       -11.04891
   S        8.17394        -3.78849         0.67499
   C        9.73886        -3.34454         1.35422
   C        9.66582        -2.15861         2.09523
   S       -6.37370        11.51139        -2.88679
   C       -7.43392        11.32569        -4.29823
   C       -7.59452         9.98835        -4.64175
   H        5.72201        -4.21405        -0.61736
   H        6.15065        -4.41843        -3.01646
   H        4.85444        -0.39572        -3.59362
   H        4.44867        -0.17663        -1.19132
   H        2.80327        -3.48502        -0.31516
   H        1.63677        -5.43546         0.60048
   H        4.19986        -5.37219         4.00726
   H        5.35294        -3.41129         3.10992
   H        5.99990        -1.60449        -5.39683
   H        6.54076        -3.27242        -5.15700
   H        3.62956        -2.38621        -5.45614
   H        4.59440        -3.18534        -6.70231
   H        4.17067        -4.04788        -5.21950
   H        1.71622        -7.35078         2.13545
   H        2.78476        -7.32852         3.54545
   H        0.24089        -5.66180         3.23091
   H        0.40750        -7.10669         4.23476
   H        1.30618        -5.63882         4.63548
   H        5.06057         1.85509         3.08325
   H        2.14647        -1.13539         0.30639
   H       -2.50481         7.61488         0.78144
   H       -5.09349         4.77204        -2.43915
   H        4.17844         3.84757         4.27760
   H        3.96496         3.93463         6.71684
   H        0.06641         2.22998         6.43878
   H        0.28241         2.12005         4.00473
   H        4.29985         3.08346         0.46719
   H        5.24849         5.12186        -0.50029
   H        2.90264         7.48790         2.16168
   H        1.96591         5.44975         3.14793
   H       -5.40813         3.97320         0.54115
   H       -6.90627         2.40460         1.67310
   H       -4.45250        -0.85436         0.42999
   H       -2.95641         0.71171        -0.71881
   H       -0.70393         3.57853        -2.15949
   H       -0.15500         2.83426        -4.42410
   H       -4.15913         1.46776        -4.95458
   H       -4.70791         2.18657        -2.67680
   H       -3.14715         9.98633         1.30334
   H       -4.10169        10.66193         3.45652
   H       -8.00753         9.73676         2.01829
   H       -7.05897         9.03961        -0.12498
   H       -1.97087         8.38579        -1.97153
   H       -0.23366         9.92792        -2.73930
   H       -2.65988        13.24588        -1.60023
   H       -4.39240        11.70640        -0.80773
   H        1.19432         2.40270         8.60909
   H        2.82158         3.08814         8.72509
   H        0.27171         4.67868         8.16215
   H        1.13771         4.63426         9.70185
   H        1.89344         5.36116         8.27964
   H        5.03622         7.53793        -0.84832
   H        4.03889         8.51846         0.23639
   H        6.74669         7.29211         0.95248
   H        6.45453         8.99467         0.58124
   H        5.75321         8.27037         2.03228
   H       -6.18655        -1.17601         2.14409
   H       -7.21104         0.17525         2.65045
   H       -7.36272        -1.23961        -0.05574
   H       -8.50134        -1.44716         1.27946
   H       -8.38315         0.10754         0.44835
   H       -2.63747         1.63894        -6.87181
   H       -0.97755         2.21211        -6.65460
   H       -2.04601        -0.49921        -5.72927
   H       -1.01494        -0.22619        -7.13802
   H       -0.39224         0.07157        -5.51103
   H       -7.63051        10.17536         4.40424
   H       -6.00865        10.55338         5.00299
   H       -7.74400        12.41596         3.30894
   H       -7.46237        12.57040         5.04644
   H       -6.12929        12.79260         3.90804
   H       -0.26068        13.55207        -2.13173
   H        0.71493        12.17805        -2.67325
   H       -1.53352        13.49468        -4.27357
   H        0.19647        13.69407        -4.57175
   H       -0.56998        12.12042        -4.81500
   H       11.77187        -3.56267         1.70992
   H        9.61455        -8.09922        -2.08814
   H       14.39333        -7.78617        -0.73863
   H       -7.54861        13.39479        -4.32503
   H      -10.99389        11.16018        -9.09769
   H      -10.35798        16.01440        -8.21638
   H       10.52085        -1.72872         2.58537
   H       -8.20325         9.66919        -5.46729
*
