# ORCA input file
# SCF done       -207.275646658379          0.000865627497
! wb97x-d3 def2-SVP def2/J RIJCOSX Grid4 TightSCF
%maxcore 5000
%tddft
    Mode sTDA
    Ethresh 5.0
    maxcore 5000
end

%pal
  nprocs 6
  end
* xyz 1 2
   C        1.84144         2.72542        -1.80545
   C        1.81780         2.80052        -0.42431
   C        2.68419         3.76511        -2.39108
   C        2.88803         4.66473        -1.17282
   C        2.69136         3.92930         0.12921
   C        1.95847         4.79157         1.13540
   C        3.97144         3.34373         0.68925
   C        3.90003         3.52740        -3.35291
   C        3.38829         4.66428        -4.17247
   C        2.34798         5.11512        -3.13520
   C        2.60080         5.80198        -1.81849
   C        3.33930         5.26763        -5.53880
   C        2.17816         4.36701        -5.09027
   C        1.30025         5.31223        -4.22892
   C        2.77378         6.64505        -5.52366
   C        4.25838         4.83769        -6.61679
   C        1.81388         3.01797        -5.40475
   C        2.54196         1.88377        -5.08372
   S        4.08604         1.94021        -4.25061
   C       -2.78936        -2.76323         0.84841
   C       -3.31768        -3.72903         0.03245
   C       -4.27456        -4.74466         0.43512
   C       -4.42518        -5.67219        -0.68513
   C       -3.60755        -5.23908        -1.74364
   C       -2.93640        -3.98743        -1.36240
   C       -5.18312        -6.82274        -0.83408
   C       -5.10156        -7.51961        -2.03289
   C       -4.27642        -7.09507        -3.06395
   C       -3.51411        -5.94430        -2.92642
   O       -2.20698        -3.31670        -2.07512
   C       -4.94094        -4.83086         1.62848
   C       -5.86386        -5.84958         1.94969
   C       -4.82213        -3.93151         2.70956
   N       -4.78913        -3.25161         3.63500
   N       -6.61758        -6.64776         2.28551
   C        3.81968         4.89305        -7.93569
   C        4.65405         4.49253        -8.96206
   C        5.93092         4.03472        -8.68045
   C        6.37223         3.98221        -7.36956
   C        5.54059         4.38291        -6.33924
   C        3.26967         7.78827        -6.11402
   C        2.54962         8.96750        -5.97383
   C        1.36738         8.99551        -5.25354
   C        0.87276         7.84562        -4.65081
   C        1.57559         6.66969        -4.79990
   C        2.62630         5.37868         2.20110
   C        1.94091         6.17510         3.10159
   C        0.58396         6.39674         2.94522
   C       -0.08453         5.82596         1.87560
   C        0.59950         5.03233         0.97365
   C        5.20583         3.71961         0.17927
   C        6.37081         3.17332         0.68913
   C        6.31178         2.24708         1.71530
   C        5.08288         1.87688         2.23634
   C        3.91876         2.42258         1.72795
   C        0.98271         1.81326         0.11816
   C        0.42170         0.99954        -0.87490
   S        0.88888         1.45024        -2.47060
   S        0.43086         1.37205         1.71315
   C       -0.53013         0.08028         1.02908
   C       -0.41546         0.00479        -0.36886
   C       -1.37267        -0.88576         1.54841
   C       -1.88321        -1.73059         0.55990
   S       -1.29440        -1.30401        -1.04241
   C       -0.56474         0.01520        -5.69085
   C       -0.59806        -1.34779        -5.62400
   C       -1.79671        -2.11642        -5.34564
   C       -1.57916        -3.46759        -5.84601
   C       -0.22749        -3.59379        -6.21073
   C        0.46831        -2.30123        -6.01664
   O        1.64597        -2.08379        -6.19942
   C       -2.85227        -1.69799        -4.58255
   C       -3.94679        -2.51779        -4.24110
   N       -4.86106        -3.14590        -3.94451
   C       -2.91691        -0.43005        -3.96736
   N       -3.00702         0.57844        -3.42550
   C       -2.44411        -4.53689        -6.00873
   C       -1.93246        -5.72833        -6.50791
   C       -0.59115        -5.85678        -6.83915
   C        0.27729        -4.78254        -6.70048
   S        0.22206         2.59898        -5.93496
   C        0.54381         0.88792        -5.71351
   C        1.84629         0.68924        -5.30325
   H        4.86552         3.66325        -2.86512
   H        2.54448         6.83574        -1.53602
   H       -3.08977        -2.78399         1.88948
   H       -5.82524        -7.18311        -0.04725
   H       -5.69215        -8.41469        -2.15861
   H       -4.22995        -7.66474        -3.97988
   H       -2.85955        -5.59897        -3.71125
   H        2.82084         5.24755        -8.14695
   H        4.30681         4.53486        -9.98375
   H        6.58082         3.71913        -9.48290
   H        7.36695         3.62632        -7.14663
   H        5.88658         4.34460        -5.31712
   H        4.19307         7.76269        -6.67329
   H        2.91710         9.87243        -6.43386
   H        0.82077         9.92190        -5.15995
   H       -0.04818         7.86977        -4.08776
   H        0.26337         5.05665        -4.02852
   H        3.68550         5.21174         2.33002
   H        2.47106         6.62267         3.92932
   H        0.04975         7.01409         3.65190
   H       -1.14210         5.99899         1.74240
   H        0.07395         4.59605         0.13616
   H        5.25223         4.45736        -0.60981
   H        7.32605         3.47453         0.28437
   H        7.22031         1.81932         2.11213
   H        5.03024         1.16178         3.04367
   H        2.96394         2.14344         2.14729
   H       -1.62098        -0.99390         2.58872
   H       -1.52174         0.52604        -5.68017
   H       -3.49393        -4.44778        -5.77657
   H       -2.59572        -6.56997        -6.64373
   H       -0.22352        -6.79864        -7.21793
   H        1.31978        -4.85967        -6.96834
   H        2.25876        -0.28070        -5.09826
*
