# ORCA input file
# SCF done       -196.920394683149          0.000724533111
! wb97x-d3 def2-SVP def2/J RIJCOSX Grid4 TightSCF
%maxcore 5000
%tddft
    Mode sTDA
    Ethresh 5.0
    maxcore 5000
end

%pal
  nprocs 6
  end
* xyz 1 2
   C        1.50897        -3.57395         1.07687
   O        0.62923        -3.51635         0.23564
   C        1.38764        -4.17294         2.42184
   C        0.29261        -4.78019         2.99961
   C        0.42068        -5.27411         4.29217
  Cl       -0.91888        -6.03763         5.04892
   C        1.63427        -5.15131         4.97580
  Cl        1.78048        -5.76742         6.57277
   C        2.73542        -4.53662         4.38811
   C        2.61141        -4.04266         3.10055
   C        3.56350        -3.35581         2.22689
   C        4.85354        -3.03537         2.56818
   C        5.78285        -2.36148         1.74918
   N        6.59769        -1.81577         1.14990
   C        5.43963        -3.33687         3.81564
   N        5.98114        -3.55113         4.80486
   C        2.88224        -3.07921         0.97939
   C        3.44845        -2.45776        -0.11075
   C        2.91381        -2.11094        -1.35190
   S        1.24266        -2.39153        -1.85259
   C        1.56162        -1.64068        -3.36800
   C        2.89693        -1.20966        -3.47628
   C        3.66669        -1.46377        -2.35167
   C        5.11944        -1.12731        -2.27087
   C        5.97952        -2.34311        -2.62759
   S        3.25890        -0.42821        -5.00333
   C        1.61410        -0.67144        -5.48560
   C        0.83752        -1.33515        -4.52224
   N       -0.44471        -1.49174        -4.97899
   C       -1.55310        -1.68936        -4.06923
   C       -0.49972        -0.92023        -6.23074
   C        0.77016        -0.37394        -6.56690
   C        0.89919         0.37751        -7.75042
   N        1.92364         1.03218        -8.30086
   N        1.40560         1.61290        -9.35256
   N        0.13209         1.41814        -9.56675
   C       -0.25055         0.62186        -8.56425
   C       -1.47326         0.00883        -8.25187
   C       -1.56807        -0.83589        -7.14443
   N       -2.80992        -1.49103        -7.07560
   C       -2.84052        -2.94680        -6.98685
   C       -2.21117        -3.62441        -8.20337
   C       -3.60446        -0.91796        -8.09102
   C       -2.77631         0.06855        -8.89759
   S       -4.05139         0.86239        -7.84035
   C       -5.12877        -1.54501        -9.97394
   C       -4.56829        -1.57838        -8.89731
   S       -2.86641         0.19715       -10.70716
   C       -4.61875         0.33862       -11.01943
   C       -5.40886        -0.95022       -11.27740
   C       -4.92674        -1.76811       -12.48824
   C       -3.83123        -2.77740       -12.17250
   C       -5.20951         1.52517       -10.81253
   C       -6.63628         1.59956       -10.91832
   C       -7.56709         2.68233       -10.73196
   C       -7.27568         3.97659       -10.40019
   C       -8.24773         4.98538       -10.23449
   N       -8.99746         5.84211       -10.09152
   C       -5.96437         4.45736       -10.19138
   N       -4.92235         4.90438       -10.01883
   C       -8.90529         2.11870       -10.96384
   C      -10.16146         2.68271       -10.92649
   C      -11.26676         1.87168       -11.19560
  Cl      -12.83604         2.56807       -11.15248
   C      -11.11193         0.51861       -11.49445
  Cl      -12.48927        -0.45524       -11.81851
   C       -9.84435        -0.05864       -11.53401
   C       -8.75631         0.74544       -11.27043
   C       -7.33603         0.45102       -11.22960
   O       -6.82497        -0.73765       -11.47838
   C       -1.71227        -0.49513        -3.13005
   C        2.18550         2.47022       -10.19753
   C        2.07187         3.91927        -9.73303
   H       -0.63743        -4.86769         2.46062
   H        3.65309        -4.46140         4.94775
   H        4.48750        -2.17908        -0.00214
   H        5.32347        -0.32577        -2.98356
   H        5.38748        -0.77462        -1.27390
   H        5.75646        -2.68106        -3.63693
   H        7.03128        -2.07794        -2.57171
   H        5.79371        -3.16271        -1.93750
   H       -2.46877        -1.80222        -4.64694
   H       -1.36549        -2.59720        -3.48779
   H       -2.30108        -3.25539        -6.09145
   H       -3.88859        -3.24091        -6.88662
   H       -1.17013        -3.32336        -8.30369
   H       -2.25278        -4.70351        -8.08354
   H       -2.73917        -3.35363        -9.11503
   H       -5.80297        -2.29192       -12.87738
   H       -4.58087        -1.06842       -13.25200
   H       -4.17340        -3.49161       -11.42651
   H       -3.56991        -3.32057       -13.07689
   H       -2.94052        -2.27926       -11.79942
   H       -4.62286         2.39480       -10.56601
   H      -10.31824         3.72407       -10.69661
   H       -9.72677        -1.10511       -11.76403
   H       -1.87710         0.41428        -3.70398
   H       -2.56640        -0.65698        -2.47901
   H       -0.82779        -0.36718        -2.51200
   H        3.22053         2.12815       -10.14247
   H        1.80399         2.36549       -11.21495
   H        2.43338         4.01514        -8.71210
   H        2.66534         4.56137       -10.37722
   H        1.03480         4.24285        -9.77226
*
