# ORCA input file
# SCF done       -238.766963896914          0.000974497456
! wb97x-d3 def2-SVP def2/J RIJCOSX Grid4 TightSCF
%maxcore 5000
%tddft
    Mode sTDA
    Ethresh 5.0
    maxcore 5000
end

%pal
  nprocs 6
  end
* xyz -1 2
   C       -2.12048         0.16765         0.56579
   C       -2.79008        -1.05442         0.63161
   C       -3.09388         1.31324         0.44404
   C       -4.39715         0.55366         0.41475
   C       -4.17967        -0.82121         0.52290
   C       -2.92712         2.21315         1.65665
   C       -2.97567         2.10631        -0.84503
   C       -5.74542         0.84299         0.25692
   C       -6.55271        -0.31804         0.25811
   S       -5.61808        -1.77741         0.45347
   C       -2.26360         1.63281        -1.93623
   C       -2.21219         2.36873        -3.10666
   C       -2.87484         3.58306        -3.21757
   C       -3.59871         4.04343        -2.12434
   C       -3.64941         3.31681        -0.95139
   C       -1.88527         3.13180         1.67489
   C       -1.69056         3.94562         2.77364
   C       -2.52629         3.86165         3.88045
   C       -3.55924         2.93462         3.85850
   C       -3.75659         2.11324         2.76333
   C       -9.36700         2.00596        -0.21833
   C      -10.66916         1.60814        -0.38733
   C      -11.76999         2.53934        -0.57081
   C      -12.97052         1.75640        -0.86659
   C      -12.64302         0.39260        -0.80629
   C      -11.21174         0.23471        -0.48503
   O      -10.63816        -0.82653        -0.34302
   C      -11.74163         3.90494        -0.45563
   C      -10.62565         4.70046        -0.11730
   N       -9.78661         5.43564         0.15775
   C      -12.86570         4.73927        -0.64020
   N      -13.72784         5.48451        -0.77810
   C      -14.26581         2.14134        -1.16977
   C      -15.20580         1.14165        -1.40153
   C      -14.88310        -0.20926        -1.33530
   C      -13.58603        -0.59157        -1.03488
  Cl      -16.82186         1.59946        -1.78354
   S       -6.69916         2.25586         0.06046
   C       -8.17839         1.28154        -0.03239
   C       -7.90567        -0.07390         0.09832
   S       -1.74695        -2.42718         0.79121
   C       -0.37554        -1.36178         0.76085
   C       -0.74366        -0.00287         0.64460
   C        8.26756        -3.45363         0.56849
   C        9.58321        -3.07876         0.46223
   C       10.68044        -4.02949         0.39142
   C       11.92909        -3.26655         0.36049
   C       11.61958        -1.89735         0.37445
   C       10.15659        -1.71501         0.42755
   C       13.25236        -3.67327         0.32070
   C       14.23648        -2.68977         0.29274
   C       13.92983        -1.33355         0.30240
   C       12.60559        -0.92934         0.34441
   O        9.58386        -0.64384         0.44206
   C       10.60516        -5.39695         0.33134
   C        9.43150        -6.18127         0.31850
   C       11.72747        -6.25037         0.25346
   N       12.58382        -7.01247         0.19244
   N        8.54584        -6.91343         0.30236
  Cl       15.88859        -3.17518         0.24472
   C        1.00245        -1.53537         0.80389
   C        1.67379        -0.31654         0.70627
   S        0.62959         1.05951         0.58542
   C        1.97411        -2.68714         0.86356
   C        3.28069        -1.93882         0.76409
   C        3.06572        -0.56080         0.69640
   C        1.96540        -3.44498         2.17991
   C        1.69128        -3.61514        -0.30429
   C        2.67432        -4.63656         2.26988
   C        2.72338        -5.33169         3.46183
   C        2.06544        -4.85850         4.59079
   C        1.36452        -3.66460         4.49446
   C        1.31624        -2.95998         3.30470
   C        2.38654        -3.51927        -1.50006
   C        2.07712        -4.35837        -2.55535
   C        1.06106        -5.29778        -2.44770
   C        0.36050        -5.37901        -1.25044
   C        0.66897        -4.54897        -0.19083
   C        2.15680        -5.59515         5.89555
   C        3.38525        -5.13390         6.68264
   C        0.75874        -6.23856        -3.57747
   C        1.57203        -7.52619        -3.42947
   C        4.63492        -2.24221         0.74105
   C        5.44758        -1.08891         0.64367
   S        4.51147         0.38191         0.60045
   S        5.58998        -3.66781         0.75796
   C        7.07732        -2.71074         0.62552
   C        6.80538        -1.34953         0.58003
   C       -2.35136         4.78727         5.04899
   C       -3.19658         6.04846         4.85770
   C       -2.85732         4.35630        -4.50408
   C       -4.04820         3.96030        -5.37942
   H       -1.74382         0.68750        -1.87858
   H       -1.64631         1.99033        -3.94595
   H       -4.12695         4.98333        -2.19026
   H       -4.20942         3.69341        -0.10785
   H       -1.23078         3.21496         0.81918
   H       -0.87709         4.65659         2.77096
   H       -4.21920         2.85069         4.70997
   H       -4.56403         1.39588         2.77479
   H       -9.19731         3.07592        -0.24632
   H      -14.56065         3.17533        -1.23375
   H      -15.64622        -0.94848        -1.52030
   H      -13.30604        -1.63206        -0.97888
   H       -8.67185        -0.82647         0.06934
   H        8.08847        -4.52127         0.61634
   H       13.53704        -4.71202         0.31253
   H       14.72681        -0.60744         0.27820
   H       12.33760         0.11576         0.35431
   H        3.18290        -5.02333         1.39876
   H        3.27840        -6.25686         3.51488
   H        0.84695        -3.27767         5.36061
   H        0.76717        -2.03077         3.25828
   H        3.17517        -2.78981        -1.61332
   H        2.63359        -4.27711        -3.47804
   H       -0.43747        -6.09981        -1.14624
   H        0.11876        -4.62972         0.73554
   H        1.25904        -5.41182         6.48908
   H        2.23169        -6.66826         5.70969
   H        3.32286        -4.06814         6.89149
   H        3.45526        -5.66949         7.62635
   H        4.29182        -5.31765         6.11051
   H       -0.30529        -6.48342        -3.58008
   H        1.00382        -5.76541        -4.53035
   H        1.33239        -8.01924        -2.49013
   H        1.35358        -8.20948        -4.24663
   H        2.63676        -7.30443        -3.43668
   H        7.57644        -0.60549         0.50123
   H       -2.65746         4.28539         5.96910
   H       -1.30096         5.06869         5.14513
   H       -4.24937         5.78945         4.77154
   H       -3.07211         6.72124         5.70281
   H       -2.89803         6.56977         3.95100
   H       -2.90730         5.42617        -4.29282
   H       -1.93023         4.15655        -5.04483
   H       -4.98258         4.16323        -4.86102
   H       -4.03854         4.52119        -6.31090
   H       -4.01013         2.89840        -5.61245
*
