# ORCA input file
# SCF done       -228.184478246339          0.000452679843
! wb97x-d3 def2-SVP def2/J RIJCOSX Grid4 TightSCF
%maxcore 5000
%tddft
    Mode sTDA
    Ethresh 5.0
    maxcore 5000
end

%pal
  nprocs 6
  end
* xyz -1 2
   C        0.22734         0.53985         0.46297
   C       -0.40088         1.53357         1.17543
   C       -1.65516         1.39481         1.92149
   C       -1.93468         2.72233         2.50137
   C       -0.91109         3.61369         2.13540
   C        0.06412         2.89848         1.30839
   O       -2.34166         0.39603         2.04924
   C        1.19813         3.45436         0.77496
   C        2.15237         2.78774        -0.02200
   C        1.57975         4.80133         0.95282
   N        2.97776         2.32658        -0.67485
   N        1.95169         5.88260         1.05425
   C       -3.00197         3.11499         3.28601
   C       -3.05442         4.43035         3.71962
   C       -2.03958         5.30117         3.35288
   C       -0.95780         4.92897         2.56557
   C       -5.67067       -10.50477         0.14710
   C       -6.09083       -11.79931        -0.17288
   C       -5.54555       -12.73601        -1.01895
   C       -4.33676       -12.56156        -1.82968
   C       -4.18176       -13.80613        -2.60630
   C       -5.22295       -14.69135        -2.27747
   C       -6.08512       -14.05475        -1.27832
   O       -3.59731       -11.59369        -1.87071
   C       -7.18753       -14.63718        -0.70823
   C       -8.02929       -14.04833         0.25859
   C       -7.64164       -15.93858        -1.01124
   N       -8.76628       -13.64997         1.04481
   N       -8.06562       -16.98686        -1.20847
   C       -3.20721       -14.13147        -3.53009
   C       -3.26923       -15.37120        -4.14652
   C       -4.30116       -16.23644        -3.81595
   C       -5.29028       -15.93136        -2.89001
   C       -6.39634        -9.68231         1.02409
   C       -5.82172        -8.44303         1.18510
   C       -4.63794        -8.29803         0.45306
   S       -4.23531        -9.68702        -0.45642
   C       -6.10312        -7.19263         1.97782
   C       -4.94889        -6.31170         1.53381
   C       -4.09991        -6.98984         0.65399
   C       -4.70592        -4.98617         1.87902
   C       -3.60549        -4.34866         1.35669
   C       -2.71592        -5.01337         0.49108
   C       -2.94618        -6.36948         0.12089
   C       -1.56619        -4.39066        -0.04834
   C       -0.68906        -5.08627        -0.88604
   C       -0.92369        -6.41681        -1.21782
   C       -2.04578        -7.04150        -0.72768
   C       -1.06303        -3.06131         0.09947
   C        0.13310        -2.92456        -0.61381
   C        0.48280        -4.21665        -1.30479
   S       -1.54353        -1.62240         0.88644
   C       -0.12549        -0.79666         0.25391
   C        0.65891        -1.65651        -0.53160
   C       -6.05276        -7.56659         3.44949
   C       -7.40439        -6.50201         1.61776
   C       -7.98309        -5.60469         2.50687
   C       -9.14521        -4.93674         2.17231
   C       -9.75878        -5.14321         0.94350
   C       -9.16912        -6.03067         0.05373
   C       -8.00440        -6.69985         0.38238
   C       -4.91542        -7.37041         4.21844
   C       -4.89259        -7.76416         5.54474
   C       -5.99424        -8.37159         6.13048
   C       -7.12625        -8.57680         5.35116
   C       -7.15545        -8.18479         4.02740
   C       -5.98238        -8.75274         7.58251
   C       -6.48652        -7.59199         8.44266
   C      -10.99874        -4.38457         0.56841
   C      -10.63023        -3.06004        -0.10312
   C        0.56492        -3.95356        -2.79645
   C        1.74983        -4.86590        -0.77487
   C        2.22925        -4.57100         0.49371
   C        3.35992        -5.20077         0.97991
   C        4.03497        -6.14543         0.21885
   C        3.54202        -6.44822        -1.04366
   C        2.41407        -5.81960        -1.53575
   C        1.71404        -3.37134        -3.31882
   C        1.80542        -3.08621        -4.66684
   C        0.75127        -3.36680        -5.52768
   C       -0.39876        -3.93469        -4.99793
   C       -0.49729        -4.21967        -3.64751
   C        0.87590        -3.10970        -7.00147
   C        1.49009        -4.32346        -7.70233
   C        5.23500        -6.85992         0.76938
   C        4.80300        -8.10479         1.54726
   F       -4.34870       -17.43295        -4.42373
   F       -2.10496         6.57242         3.78074
   H        1.15067         0.81188        -0.03415
   H       -3.77110         2.40565         3.54865
   H       -3.86432         4.79087         4.33369
   H       -0.20563         5.65978         2.31962
   H       -7.00409       -12.08209         0.33680
   H       -2.42200       -13.42814        -3.75918
   H       -2.53614       -15.67679        -4.87602
   H       -6.06273       -16.65315        -2.68355
   H       -7.30480       -10.01546         1.49342
   H       -5.37621        -4.46710         2.54649
   H       -3.40669        -3.31860         1.61200
   H       -0.23524        -6.94657        -1.85786
   H       -2.24749        -8.07016        -0.98626
   H        1.56666        -1.32475        -1.00314
   H       -7.52973        -5.43904         3.47358
   H       -9.58531        -4.24738         2.87873
   H       -9.62793        -6.20378        -0.90932
   H       -7.56334        -7.38384        -0.32816
   H       -4.04137        -6.90641         3.78517
   H       -3.99990        -7.59912         6.13121
   H       -7.99350        -9.05324         5.78522
   H       -8.04553        -8.34905         3.43754
   H       -6.62227        -9.62277         7.74203
   H       -4.96743        -9.01338         7.88907
   H       -7.50330        -7.32672         8.16156
   H       -6.47722        -7.86607         9.49493
   H       -5.85445        -6.71732         8.30557
   H      -11.60476        -4.97966        -0.11747
   H      -11.59281        -4.18152         1.46168
   H      -10.04891        -3.24183        -1.00435
   H      -11.52717        -2.50769        -0.37310
   H      -10.03384        -2.44779         0.56968
   H        1.72102        -3.84149         1.10733
   H        3.72443        -4.95141         1.96625
   H        4.04964        -7.18323        -1.65196
   H        2.05568        -6.06175        -2.52582
   H        2.54603        -3.15242        -2.66523
   H        2.70736        -2.63676        -5.05683
   H       -1.23316        -4.15516        -5.64852
   H       -1.40673        -4.65456        -3.25922
   H       -0.10876        -2.90792        -7.42775
   H        1.50896        -2.23692        -7.17325
   H        0.86680        -5.20229        -7.55190
   H        1.58143        -4.14074        -8.77038
   H        2.47877        -4.53234        -7.29965
   H        5.89667        -7.15696        -0.04661
   H        5.78935        -6.19479         1.43452
   H        4.25750        -8.78608         0.89804
   H        5.67079        -8.62447         1.94642
   H        4.15272        -7.82751         2.37400
*
