# ORCA input file
# SCF done       -198.234240057903          0.000452198354
! wb97x-d3 def2-SVP def2/J RIJCOSX Grid4 TightSCF
%maxcore 5000
%tddft
    Mode sTDA
    Ethresh 5.0
    maxcore 5000
end

%pal
  nprocs 6
  end
* xyz -1 2
   C       -0.60368        -2.51124        -0.56097
   C       -0.99425        -1.18221        -0.30190
   S       -2.66964        -1.01517         0.17607
   C       -2.84070        -2.72493         0.02517
   C       -1.66696        -3.39946        -0.35864
   N       -1.92458        -4.74900        -0.44064
   C       -1.16176        -5.67204        -1.26065
   C       -3.25810        -4.93474        -0.13147
   C       -3.86497        -3.67414         0.12498
   C       -5.26743        -3.55550         0.24604
   N       -5.99106        -2.46792         0.46144
   S       -7.55669        -2.86269         0.36372
   N       -7.37744        -4.43535         0.04127
   C       -6.08360        -4.71516         0.00460
   C       -5.45773        -5.96798        -0.17774
   C       -4.05364        -6.09788        -0.10382
   N       -3.68457        -7.46238        -0.12730
   C       -3.01108        -8.00681         1.06678
   C       -1.58956        -7.54549         1.31857
   C       -4.88060        -8.14864        -0.38724
   C       -5.96570        -7.26763        -0.38990
   S       -7.50612        -8.00392        -0.64537
   C       -6.69870        -9.54136        -0.76506
   C       -5.28712        -9.46796        -0.61638
   C        0.29368        -5.82936        -0.83077
   C       -7.83743       -14.55054        -1.66542
   C       -7.32294       -15.82608        -1.70306
   C       -8.12767       -16.99669        -2.00828
   C       -9.39954       -17.02634        -2.51948
   C      -10.11076       -18.21413        -2.79423
   N      -10.74953       -19.13687        -3.03582
   C      -10.18162       -15.90957        -2.88531
   N      -10.88435       -15.07004        -3.23300
   C       -7.31382       -18.18039        -1.73766
   C       -7.60145       -19.53379        -1.80144
   C       -6.59847       -20.44422        -1.48519
  Cl       -6.94834       -22.12453        -1.55646
   C       -5.32036       -20.01613        -1.11223
   C       -5.02966       -18.65955        -1.04585
   C       -6.02964       -17.76137        -1.35654
   C       -5.96685       -16.28405        -1.34680
   O       -4.97579       -15.63250        -1.07729
   N       -4.73923       -10.71173        -0.78852
   C       -5.77532       -11.58199        -1.01895
   C       -7.00822       -10.87510        -1.00871
   C       -3.34668       -11.08580        -0.83380
   C       -2.92704       -11.87552         0.40475
   C       -5.90369       -12.93964        -1.25473
   C       -7.23398       -13.31071        -1.41845
   S       -8.33543       -11.91964        -1.29877
  Cl       -4.10455       -21.16839        -0.73195
   C        4.02191        -1.89467        -1.87856
   O        3.34621        -2.90772        -1.82032
   C        5.43536        -1.81770        -2.29897
   C        6.26890        -2.83655        -2.71014
   C        7.57481        -2.51643        -3.06067
   C        8.01759        -1.19171        -2.99272
  Cl        9.63411        -0.80877        -3.42893
   C        7.17206        -0.16807        -2.57644
   C        5.86996        -0.48313        -2.22652
   C        4.76052         0.34824        -1.75835
   C        4.82646         1.70308        -1.55146
   C        3.77425         2.52205        -1.09214
   N        2.97268         3.25762        -0.72117
   C        5.98341         2.48069        -1.76998
   N        6.88518         3.17374        -1.92568
   C        3.62286        -0.52505        -1.55439
   C        2.37746        -0.11700        -1.13317
  Cl        8.64569        -3.75525        -3.57885
   C        0.00755        -0.23899        -0.47049
   C        1.20894        -0.83983        -0.88900
   S        1.04822        -2.58853        -1.05045
   C       -0.22003         1.22471        -0.28168
   C       -0.55837         1.89760        -1.61500
   H       -1.68467        -6.62829        -1.22276
   H       -1.18925        -5.31576        -2.29816
   H       -3.62385        -7.75595         1.94477
   H       -3.02084        -9.09064         0.95711
   H       -1.54157        -6.46594         1.41714
   H       -1.25287        -7.98591         2.25447
   H       -0.92161        -7.87595         0.52976
   H        0.38525        -5.88316         0.24958
   H        0.69826        -6.74122        -1.26200
   H        0.89962        -5.00059        -1.18081
   H       -8.90572       -14.47211        -1.82906
   H       -8.57372       -19.90343        -2.08201
   H       -4.04927       -18.31414        -0.75830
   H       -3.18846       -11.70270        -1.72447
   H       -2.75281       -10.17518        -0.93992
   H       -3.12488       -11.31245         1.31459
   H       -3.47580       -12.81182         0.45745
   H       -1.86498       -12.09891         0.35621
   H       -5.10232       -13.65219        -1.30433
   H        5.91400        -3.85381        -2.75768
   H        7.55080         0.83987        -2.53775
   H        2.26578         0.94427        -0.95897
   H       -1.05915         1.35413         0.40482
   H        0.65618         1.70615         0.15468
   H       -1.45514         1.45689        -2.04426
   H       -0.73092         2.95826        -1.45766
   H        0.25920         1.78261        -2.32278
*
