# ORCA input file
# SCF done       -200.377346433155          0.000664471229
! wb97x-d3 def2-SVP def2/J RIJCOSX Grid4 TightSCF
%maxcore 5000
%tddft
    Mode sTDA
    Ethresh 5.0
    maxcore 5000
end

%pal
  nprocs 6
  end
* xyz -1 2
   C        0.27969         0.36479        -1.43137
   O        0.04290         1.52579        -1.70743
   C       -0.68859        -0.61226        -0.88744
   C       -2.01288        -0.41750        -0.55585
   C       -2.73006        -1.49519        -0.05079
   C       -2.11126        -2.73859         0.10969
   C       -0.77570        -2.93004        -0.22901
   C       -0.05763        -1.85786        -0.73174
   C        1.33436        -1.73775        -1.16753
   C        2.24096        -2.76724        -1.18920
   C        3.58115        -2.69684        -1.62499
   N        4.67940        -2.75354        -1.95907
   C        1.94928        -4.08386        -0.77373
   N        1.78689        -5.17333        -0.44937
   C        1.54653        -0.36125        -1.56506
   C        2.75661         0.17085        -1.94437
   C        3.10441         1.47310        -2.31639
   C        4.43297         1.85119        -2.60237
   C        4.52810         3.16691        -3.03376
   C        3.30841         3.82774        -3.08738
   S        2.00672         2.80003        -2.60990
   C        2.66355         7.87692        -4.20527
   C        2.39903         9.23355        -4.61761
   C        3.03461        10.39880        -4.26929
   C        2.45616        11.55115        -4.82319
   C        1.36122        11.26338        -5.64328
   S        1.06599         9.54352        -5.68313
   C        0.68783        12.16789        -6.48601
   C       -0.46939        11.99089        -7.19166
   C       -1.51004        10.99504        -7.08935
   C       -1.92492        10.37705        -5.93722
   C       -2.92813         9.39209        -5.88092
   N       -3.69776         8.54503        -5.78598
   C       -1.41917        10.72844        -4.66798
   N       -1.07376        11.04284        -3.61926
   C       -2.21595        10.97630        -8.36775
   C       -3.18789        10.12380        -8.86109
   C       -3.71945        10.38173       -10.12018
   C       -3.29632        11.48223       -10.87302
   C       -2.32214        12.34103       -10.37728
   C       -1.78831        12.07699        -9.13317
   C       -0.72966        12.81059        -8.39819
   O       -0.16356        13.82611        -8.73226
  Cl       -3.98131        11.77697       -12.42053
  Cl       -4.91539         9.32374       -10.75313
   C        1.59625         6.98879        -4.08740
   C        1.77583         5.67381        -3.69691
   C        3.08854         5.20025        -3.45997
   C        4.15645         6.09564        -3.58161
   C        3.97136         7.42216        -3.92763
   O        4.96979         8.33156        -4.05109
   C        6.31486         7.91930        -3.89233
   C        7.19304         9.13527        -4.14316
   O        0.78481         4.78146        -3.50782
   C       -0.57578         5.13832        -3.68297
   C       -0.99501         5.15932        -5.14856
  Cl       -4.38122        -1.29447         0.37799
  Cl       -3.00739        -4.06312         0.73763
   C        2.90291        12.90273        -4.52160
   C        5.58573         0.95995        -2.47461
   C        4.26378        13.18228        -4.39026
   C        4.68928        14.46117        -4.09646
   C        3.77625        15.49404        -3.91069
   C        2.42076        15.21080        -4.02983
   C        1.98462        13.93563        -4.32894
   C        4.24515        16.89073        -3.62885
   C        4.45097        17.65618        -4.93817
   C        6.46155         0.80552        -3.54686
   C        7.52422        -0.07124        -3.46077
   C        7.75068        -0.80733        -2.30413
   C        6.89930        -0.62164        -1.22212
   C        5.82940         0.24678        -1.30257
   C        8.91688        -1.74568        -2.20782
   C       10.14851        -1.01878        -1.66331
   H       -2.47676         0.54762        -0.68416
   H       -0.33530        -3.90343        -0.08981
   H        3.59676        -0.51362        -1.94701
   H        5.46910         3.61698        -3.29564
   H        3.86481        10.42019        -3.58905
   H        1.21732        13.09327        -6.69506
   H       -3.53209         9.26680        -8.30477
   H       -1.99170        13.19357       -10.94930
   H        0.60654         7.37131        -4.28041
   H        5.14843         5.73266        -3.37450
   H        6.55175         7.12377        -4.61163
   H        6.47635         7.53764        -2.87505
   H        6.97191         9.91161        -3.41567
   H        8.23978         8.85872        -4.05933
   H        7.00582         9.52726        -5.13922
   H       -1.11893         4.35398        -3.14985
   H       -0.78270         6.10019        -3.19977
   H       -0.85044         4.17572        -5.58778
   H       -2.04470         5.42926        -5.22065
   H       -0.41059         5.87959        -5.71649
   H        4.98546        12.39374        -4.54553
   H        5.74685        14.66494        -4.00614
   H        1.69721        15.99814        -3.87596
   H        0.92678        13.72223        -4.37223
   H        3.50545        17.41359        -3.01965
   H        5.18645        16.86254        -3.07632
   H        3.52120        17.70084        -5.50054
   H        4.78408        18.67116        -4.73551
   H        5.19896        17.16088        -5.55323
   H        6.28095         1.35275        -4.46100
   H        8.18131        -0.19747        -4.30957
   H        7.06865        -1.17507        -0.31032
   H        5.18477         0.39075        -0.44684
   H        8.66471        -2.57590        -1.54627
   H        9.14593        -2.15205        -3.19465
   H        9.94436        -0.61582        -0.67377
   H       10.99222        -1.70115        -1.59296
   H       10.42265        -0.19427        -2.31814
*
