# ORCA input file
# SCF done       -199.350952670186          0.000869818472
! wb97x-d3 def2-SVP def2/J RIJCOSX Grid4 TightSCF
%maxcore 5000
%tddft
    Mode sTDA
    Ethresh 5.0
    maxcore 5000
end

%pal
  nprocs 6
  end
* xyz -1 2
   C       -0.39224         0.52573         0.59959
   O       -0.40347         1.73775         0.47327
   C       -0.99723        -0.23918         1.71043
   C       -1.70608         0.23665         2.79515
   C       -2.19275        -0.69202         3.70127
   F       -2.88791        -0.27594         4.76682
   C       -1.96715        -2.05555         3.51241
   F       -2.45444        -2.92967         4.39955
   C       -1.24956        -2.53259         2.42481
   C       -0.75925        -1.61030         1.51450
   C        0.03104        -1.77894         0.29376
   C        0.57597        -2.95935        -0.14042
   C        1.45561        -3.09244        -1.23542
   N        2.20872        -3.26933        -2.08440
   C        0.37281        -4.20291         0.49446
   N        0.23615        -5.24285         0.96011
   C        0.18997        -0.46872        -0.30053
   C        0.71736        -0.21253        -1.54455
   C        0.92551         0.99931        -2.20493
   S        0.56804         2.60518        -1.59127
   C        1.11847         3.30914        -3.06755
   C        1.55603         2.34546        -3.99508
   C        1.45833         1.04365        -3.51408
   O        1.75719        -0.07326        -4.21885
   C        3.06332        -0.62735        -4.03232
   S        2.09656         3.02330        -5.51804
   C        1.73418         4.59844        -4.90434
   C        1.23249         4.59726        -3.59583
   N        0.97996         5.87955        -3.18870
   C        0.14605         6.10230        -2.02708
   C        1.30846         6.72757        -4.23117
   C        1.76169         5.93277        -5.32719
   C        2.06550         6.49326        -6.58812
   N        2.46217         5.87982        -7.69182
   S        2.59595         6.97959        -8.87096
   N        2.15594         8.28338        -8.01739
   C        1.88922         7.90168        -6.77832
   C        1.52650         8.69752        -5.66896
   C        1.29784         8.14153        -4.37469
   N        1.09159         9.18291        -3.48760
   C        1.15711         9.21014        -2.04277
   C        2.50481         8.70347        -1.53614
   C        1.16971        10.35509        -4.18856
   C        1.41603        10.08668        -5.53943
   S        1.52242        11.50251        -6.51917
   C        1.25613        12.49032        -5.08283
   C        1.08833        11.72459        -3.91568
   S        0.83135        12.68151        -2.50328
   C        0.97022        14.14558        -3.46316
   C        1.18051        13.86303        -4.83922
   O        1.24489        14.89464        -5.68088
   C        1.66245        14.69957        -7.02500
   C        0.93371        15.45740        -3.00208
   C        0.75227        15.94699        -1.72677
   C        0.76881        17.34157        -1.34672
   C        1.06640        18.42169        -2.13768
   C        1.05783        19.75744        -1.68373
   N        1.07291        20.86346        -1.37673
   C        1.44524        18.37071        -3.49592
   N        1.77133        18.42756        -4.59607
   C        0.44383        17.40702         0.08059
   C        0.30137        18.48314         0.94154
   C       -0.00927        18.22021         2.26820
   F       -0.15290        19.24664         3.11453
   C       -0.17479        16.91801         2.73839
   F       -0.47264        16.70983         4.02750
   C       -0.03440        15.83602         1.88400
   C        0.27249        16.09883         0.56424
   C        0.47055        15.14081        -0.54383
   O        0.40158        13.92533        -0.46132
   C       -1.23828         6.60815        -2.42384
   C        4.16651         0.26876        -4.57545
   C        3.17176        14.52867        -7.12974
   H       -1.87896         1.29143         2.93730
   H       -1.10416        -3.59556         2.32400
   H        0.99703        -1.07004        -2.14571
   H        3.23239        -0.83982        -2.96920
   H        3.02509        -1.57215        -4.57630
   H        0.04567         5.13597        -1.52752
   H        0.63628         6.77591        -1.32461
   H        1.03068        10.25356        -1.74535
   H        0.32690         8.65169        -1.61105
   H        3.30328         9.34342        -1.90411
   H        2.52100         8.72331        -0.45012
   H        2.70068         7.68827        -1.87371
   H        1.13925        13.84658        -7.46979
   H        1.34954        15.61539        -7.53171
   H        1.07470        16.18033        -3.79620
   H        0.41815        19.50792         0.62981
   H       -0.16174        14.82743         2.24337
   H       -1.17640         7.53809        -2.98448
   H       -1.73837         5.86970        -3.04608
   H       -1.83946         6.77263        -1.53408
   H        4.23974         1.18819        -3.99765
   H        3.96692         0.52423        -5.61320
   H        5.11569        -0.25586        -4.51554
   H        3.49637        13.62760        -6.61501
   H        3.45472        14.45301        -8.17505
   H        3.67112        15.38695        -6.68723
*
