# ORCA input file
# SCF done       -622.555441648457          0.000941221772
! wb97x-d3 def2-SVP def2/J RIJCOSX Grid4 TightSCF
%maxcore 5000
%tddft
    Mode sTDA
    Ethresh 5.0
    maxcore 5000
end

%pal
  nprocs 6
  end
* xyz 1 2
   C        2.33403        -5.56738         6.27329
   C        1.47864        -6.65500         6.16157
   C        1.59860        -7.26450         4.91597
   C        2.54197        -6.69253         4.07586
   S        3.33050        -5.35999         4.86732
   C        2.72287        -7.07849         2.72651
   S        1.52642        -8.14910         2.05055
   C        2.24236        -8.09426         0.45924
   C        3.41713        -7.34698         0.47958
   C        3.66005        -6.74051         1.75579
   C        4.35885        -7.18002        -0.62071
   C        5.48639        -6.25531        -0.36340
   C        5.68205        -5.62544         0.86940
   C        4.75522        -5.82801         1.99706
   C        1.45204        -8.66216        -0.57769
   C        1.65965        -8.83582        -1.92872
   C        0.53198        -9.26982        -2.63985
   S       -0.18638        -9.11207        -0.16203
   O        4.28563        -7.77377        -1.68822
   O        4.91081        -5.22552         3.05633
   C        2.39810        -4.61104         7.33680
   C        2.29763        -4.79838         8.69784
   C        2.28658        -3.58990         9.39616
   C        2.37841        -2.48301         8.57506
   S        2.51667        -2.90987         6.91803
   C        2.18238        -3.16629        10.83942
   C        2.17241        -1.65084        10.69346
   C        2.28082        -1.27365         9.33635
   C        2.02360        -0.70333        11.68081
   C        1.97867         0.62830        11.28338
   C        2.07686         1.00483         9.92573
   C        2.23111         0.05829         8.93856
   C        1.81211         1.83766        12.03609
   C        1.76735         2.93573        11.20564
   C        1.92787         2.51156         9.76698
   S        1.65413         2.26989        13.69342
   C        1.53661         3.93658        13.24780
   C        1.61200         4.14521        11.90327
   C       -0.57515        -9.43485        -1.82437
   C        3.14981         3.20780         9.20518
   C        0.69004         2.75238         8.92279
   C        0.78451         2.78409         7.53687
   C       -0.34657         2.94250         6.75885
   C       -1.60154         3.06985         7.33995
   C       -1.69223         3.02904         8.72438
   C       -0.56353         2.86940         9.50704
   C        4.39223         2.59176         9.17206
   C        5.50075         3.27524         8.70550
   C        5.40080         4.58990         8.27259
   C        4.15639         5.20596         8.31710
   C        3.04640         4.52753         8.78067
   C       -2.83417         3.19364         6.49018
   C       -3.40233         1.80971         6.16902
   C        6.59670         5.31402         7.72404
   C        6.69919         5.10728         6.21149
   C        3.39366        -3.70932        11.57114
   C        0.88181        -3.57375        11.50321
   C        0.78158        -3.57995        12.88972
   C       -0.42004        -3.87035        13.50478
   C       -1.55365        -4.15706        12.75483
   C       -1.44673        -4.16613        11.37214
   C       -0.24561        -3.87286        10.75209
   C        4.53900        -2.94797        11.75125
   C        5.64762        -3.48806        12.37806
   C        5.64540        -4.80025        12.82956
   C        4.50041        -5.56269        12.63532
   C        3.39104        -5.02811        12.01033
   C        6.83077        -5.36856        13.55549
   C        6.68506        -5.15478        15.06357
   C       -2.86586        -4.40715        13.43649
   C       -3.54589        -3.09484        13.82837
   C        0.44424        -7.05872         7.16796
   C       -0.70822        -6.05341         7.19451
   C        6.38944        -6.01651        -1.39802
   C        7.46509        -5.16990        -1.21628
   C        7.65777        -4.54646         0.00929
   C        6.77131        -4.77348         1.04308
   C        0.53682        -9.54200        -4.11372
   C        1.79642       -10.27995        -4.56228
   C      -12.87115        -6.83512        -0.05736
   C      -13.77386        -6.82842         1.00310
   C      -14.50707        -5.64701         1.03785
   C      -14.21538        -4.74504         0.02611
   S      -13.03917        -5.41793        -1.06219
   C      -14.65956        -3.40294         0.02666
   S      -15.40384        -2.82909         1.49432
   C      -15.42843        -1.17247         0.94079
   C      -14.98149        -1.09371        -0.37422
   C      -14.52102        -2.35381        -0.87628
   C      -14.98559         0.09735        -1.21474
   C      -14.43986        -0.08591        -2.57940
   C      -13.94371        -1.31052        -3.03968
   C      -13.93386        -2.51339        -2.18713
   C      -15.70544        -0.20896         1.95033
   C      -15.58356         1.16290         1.99667
   C      -15.65955         1.71022         3.28845
   S      -16.01828        -0.83274         3.55191
   O      -15.43095         1.18218        -0.86602
   O      -13.44957        -3.57059        -2.58398
   C      -11.80335        -7.73710        -0.32598
   C      -11.20809        -8.65223         0.52584
   C      -10.02413        -9.16474         0.00740
   C       -9.71971        -8.68723        -1.25523
   S      -10.90347        -7.58031        -1.82833
   C       -8.92990       -10.07455         0.50560
   C       -7.88852        -9.87884        -0.58453
   C       -8.41644        -9.12019        -1.65700
   C       -6.56761       -10.25820        -0.56926
   C       -5.79001        -9.88997        -1.66329
   C       -6.34483        -9.23631        -2.78752
   C       -7.65946        -8.83106        -2.78969
   C       -4.37675        -9.93808        -1.86947
   C       -4.03025        -9.36043        -3.07723
   C       -5.27451        -8.96460        -3.83535
   S       -3.00620       -10.31906        -0.91005
   C       -1.94760        -9.65985        -2.14488
   C       -2.65293        -9.22224        -3.24962
   C      -15.85441         0.74863         4.26102
   C       -5.32385        -7.50427        -4.23095
   C       -5.37341        -9.88038        -5.04267
   C       -6.23090       -10.96968        -5.07683
   C       -6.25473       -11.80757        -6.17779
   C       -5.42029       -11.58628        -7.26397
   C       -4.55907       -10.49653        -7.22247
   C       -4.53209        -9.65693        -6.12670
   C       -4.62135        -6.54468        -3.51552
   C       -4.71600        -5.20760        -3.85481
   C       -5.52347        -4.79252        -4.90483
   C       -6.23485        -5.75480        -5.60956
   C       -6.14036        -7.09267        -5.27718
   C       -5.48063       -12.47101        -8.47588
   C       -6.48688       -11.92158        -9.48913
   C       -5.59053        -3.34553        -5.30074
   C       -4.53487        -3.03290        -6.36320
   C       -9.50248       -11.48227         0.52979
   C       -8.36076        -9.68654         1.85440
   C       -8.45936        -8.38729         2.33296
   C       -7.91608        -8.04585         3.55812
   C       -7.24775        -8.98518         4.33212
   C       -7.13563       -10.27953         3.84106
   C       -7.68132       -10.62691         2.61976
   C       -9.24197       -12.40439        -0.47273
   C       -9.82449       -13.65892        -0.43909
   C      -10.68621       -14.02095         0.58642
   C      -10.94818       -13.09183         1.58562
   C      -10.36859       -11.83885         1.55712
   C      -11.28110       -15.39865         0.64231
   C      -10.36477       -16.34542         1.42016
   C       -6.69759        -8.62212         5.68216
   C       -7.75980        -8.80686         6.76868
   C      -13.96010        -7.88868         2.04473
   C      -13.14969        -7.56545         3.30314
   C      -14.41957         1.01726        -3.43109
   C      -13.91830         0.91205        -4.71350
   C      -13.42445        -0.30361        -5.16717
   C      -13.43743        -1.40507        -4.33462
   C      -15.57170         3.18160         3.55197
   C      -16.70171         3.93037         2.84460
   C      -10.25807        -6.16223        12.42342
   C       -9.94195        -7.43901        11.98899
   C       -8.65854        -7.83655        12.39283
   C       -7.98333        -6.90195        13.13672
   S       -8.97152        -5.48751        13.38108
   C       -6.67875        -6.95915        13.70925
   S       -6.43664        -6.25497        15.28141
   C       -4.74013        -6.66853        15.28980
   C       -4.39244        -7.29380        14.09956
   C       -5.49205        -7.45633        13.19979
   C       -3.03971        -7.66773        13.73158
   C       -2.83089        -7.93369        12.29396
   C       -3.90140        -8.07555        11.40516
   C       -5.31337        -7.95528        11.83824
   C       -3.97884        -6.26030        16.41724
   C       -4.46745        -5.46567        17.43718
   C       -3.52739        -5.17207        18.43400
   S       -2.30727        -6.66582        16.70818
   O       -2.11159        -7.73469        14.52765
   O       -6.22948        -8.21685        11.07494
   C      -11.37952        -5.33569        12.10284
   C      -12.66073        -5.68912        11.73314
   C      -13.41757        -4.58750        11.33677
   C      -12.73172        -3.38828        11.41790
   S      -11.13465        -3.59663        12.01149
   C      -14.80033        -4.35962        10.77981
   C      -14.69237        -2.90115        10.36124
   C      -13.47815        -2.32985        10.80617
   C      -15.51700        -2.22567         9.49407
   C      -15.08834        -0.97480         9.06459
   C      -13.93059        -0.35517         9.58730
   C      -13.11690        -1.02511        10.47245
   C      -15.48886        -0.21091         7.92712
   C      -14.63341         0.85390         7.71354
   C      -13.66609         0.96583         8.87210
   S      -16.51026        -0.51724         6.58460
   C      -15.72288         0.76852         5.68563
   C      -14.78505         1.43479         6.45178
   C       -2.32427        -5.76610        18.16313
   C      -12.20693         1.03492         8.47514
   C      -14.08058         2.17901         9.68612
   C      -14.73266         2.06711        10.90458
   C      -15.12160         3.20080        11.59623
   C      -14.87728         4.46848        11.08785
   C      -14.22791         4.57464         9.86384
   C      -13.83780         3.44678         9.16978
   C      -11.75503         0.46507         7.29314
   C      -10.40916         0.48312         6.97403
   C       -9.47852         1.05363         7.83140
   C       -9.93381         1.61099         9.01951
   C      -11.27758         1.60071         9.34009
   C      -15.25703         5.69641        11.86430
   C      -14.10809         6.12605        12.77895
   C       -8.02058         1.10550         7.47396
   C       -7.67361         2.44165         6.81440
   C      -15.78601        -4.59993        11.90713
   C      -15.13405        -5.16055         9.53896
   C      -14.13953        -5.54237         8.64955
   C      -14.46300        -6.15800         7.45421
   C      -15.78676        -6.39913         7.11207
   C      -16.77834        -6.02301         8.00857
   C      -16.45961        -5.40997         9.20491
   C      -16.36061        -3.55473        12.61468
   C      -17.22145        -3.81192        13.66665
   C      -17.52283        -5.11328        14.04270
   C      -16.94028        -6.15672        13.33385
   C      -16.08019        -5.90534        12.28316
   C      -18.49478        -5.38722        15.15405
   C      -19.92139        -5.47003        14.60714
   C      -16.14995        -6.98655         5.77876
   C      -16.40441        -5.87141         4.76159
   C      -10.77257        -8.30019        11.08719
   C      -10.75344        -7.76656         9.65431
   C       -1.52546        -8.04813        11.82167
   C       -1.28232        -8.30957        10.48759
   C       -2.34389        -8.47205         9.60803
   C       -3.64207        -8.35376        10.06488
   C       -3.82941        -4.36050        19.65448
   C       -4.57460        -5.20242        20.69132
   H        0.99920        -8.10605         4.61141
   H        2.60988        -8.63255        -2.38369
   H        2.25539        -5.76671         9.16037
   H        1.93226        -0.97285        12.72181
   H        2.30098         0.32629         7.89548
   H        1.41626         4.66726        14.02307
   H        1.55731         5.11722        11.44777
   H        1.75150         2.69474         7.06312
   H       -0.25263         2.96868         5.68224
   H       -2.65907         3.12374         9.19865
   H       -0.66122         2.83677        10.58237
   H        4.49630         1.57148         9.51087
   H        6.46036         2.77818         8.68252
   H        4.05699         6.23109         7.98858
   H        2.08563         5.02178         8.80627
   H       -2.59087         3.70728         5.55773
   H       -3.59036         3.78065         7.01612
   H       -2.65927         1.20777         5.65084
   H       -4.28203         1.89506         5.53444
   H       -3.68076         1.29251         7.08470
   H        7.50588         4.94161         8.20049
   H        6.51248         6.38197         7.93618
   H        6.79487         4.04863         5.98078
   H        7.56557         5.63006         5.81264
   H        5.80694         5.48518         5.71707
   H        1.65310        -3.36392        13.49074
   H       -0.48188        -3.87618        14.58370
   H       -2.31403        -4.40018        10.77019
   H       -0.19027        -3.87294         9.67368
   H        4.56625        -1.92587        11.40279
   H        6.53014        -2.87898        12.51444
   H        4.47925        -6.58856        12.97543
   H        2.50739        -5.63436        11.87074
   H        7.74543        -4.88285        13.20962
   H        6.91294        -6.43798        13.35029
   H        6.61499        -4.09292        15.28924
   H        7.54159        -5.56693        15.59217
   H        5.78350        -5.64167        15.42874
   H       -2.69199        -4.99777        14.33694
   H       -3.52649        -4.96863        12.77148
   H       -2.91055        -2.52654        14.50341
   H       -4.49226        -3.29361        14.32713
   H       -3.73775        -2.48919        12.94556
   H        0.88672        -7.12652         8.16158
   H        0.06173        -8.04554         6.90024
   H       -0.33347        -5.05735         7.41605
   H       -1.43517        -6.32545         7.95632
   H       -1.20542        -6.02448         6.22759
   H        6.22207        -6.51254        -2.34266
   H        8.15586        -4.99384        -2.02755
   H        8.49909        -3.88510         0.15422
   H        6.89759        -4.30091         2.00587
   H        0.46548        -8.59281        -4.65448
   H       -0.34073       -10.14029        -4.36739
   H        2.68290        -9.67162        -4.40857
   H        1.72587       -10.52264        -5.62006
   H        1.91171       -11.20512        -4.00243
   H      -15.23367        -5.42838         1.80230
   H      -15.41046         1.75080         1.11466
   H      -11.57445        -8.88876         1.50409
   H       -6.13242       -10.77839         0.27028
   H       -8.08240        -8.27195        -3.61025
   H       -2.18630        -8.74778        -4.09256
   H       -6.88739       -11.16616        -4.24202
   H       -6.93209       -12.64988        -6.18911
   H       -3.89918       -10.30681        -8.05733
   H       -3.85922        -8.81172        -6.11234
   H       -3.99576        -6.84196        -2.68642
   H       -4.15769        -4.47491        -3.28922
   H       -6.87516        -5.45268        -6.42629
   H       -6.70086        -7.82580        -5.83963
   H       -5.77876       -13.47995        -8.18366
   H       -4.49495       -12.52752        -8.94251
   H       -7.47903       -11.86997        -9.04619
   H       -6.53111       -12.56083       -10.36791
   H       -6.19996       -10.91997        -9.80176
   H       -5.41961        -2.71411        -4.42657
   H       -6.58106        -3.11669        -5.69913
   H       -3.53896        -3.24340        -5.97948
   H       -4.58189        -1.98524        -6.65148
   H       -4.69632        -3.64464        -7.24813
   H       -8.96484        -7.63459         1.74532
   H       -8.01000        -7.03030         3.91660
   H       -6.61255       -11.02637         4.42174
   H       -7.58897       -11.64241         2.26151
   H       -8.57886       -12.14603        -1.28509
   H       -9.60734       -14.36623        -1.22711
   H      -11.61788       -13.35230         2.39325
   H      -10.58022       -11.13056         2.34506
   H      -11.41983       -15.78346        -0.37009
   H      -12.25722       -15.36113         1.13038
   H       -9.38980       -16.40529         0.94157
   H      -10.79398       -17.34390         1.46106
   H      -10.22453       -15.98512         2.43692
   H       -6.36608        -7.58144         5.67876
   H       -5.83710        -9.25425         5.91114
   H       -8.62011        -8.17167         6.56759
   H       -7.35702        -8.54831         7.74555
   H       -8.09690        -9.84106         6.79507
   H      -13.67927        -8.86402         1.64644
   H      -15.01851        -7.93045         2.31203
   H      -12.09455        -7.44291         3.06884
   H      -13.25157        -8.36381         4.03557
   H      -13.50344        -6.63711         3.74461
   H      -14.80717         1.95362        -3.05757
   H      -13.91106         1.77542        -5.36222
   H      -13.03144        -0.38839        -6.16944
   H      -13.05832        -2.36174        -4.66227
   H      -14.61002         3.55619         3.19095
   H      -15.63297         3.36594         4.62521
   H      -16.65333         3.77327         1.77052
   H      -16.62734         4.99674         3.04416
   H      -17.66726         3.57796         3.20064
   H       -8.23409        -8.78928        12.13785
   H       -5.47880        -5.09673        17.44715
   H      -13.02529        -6.69827        11.74465
   H      -16.40889        -2.67606         9.08615
   H      -12.19030        -0.59957        10.82726
   H      -14.17157         2.22758         6.06383
   H       -1.43013        -5.70344        18.75296
   H      -14.93583         1.09099        11.32004
   H      -15.62577         3.09596        12.54660
   H      -14.02910         5.55282         9.44913
   H      -13.32992         3.54597         8.22137
   H      -12.45775         0.00049         6.61655
   H      -10.07744         0.03801         6.04651
   H       -9.22582         2.05326         9.70623
   H      -11.60950         2.03834        10.27083
   H      -16.14234         5.49292        12.47011
   H      -15.49311         6.51114        11.17670
   H      -13.86595         5.33068        13.48037
   H      -14.38117         7.01531        13.34232
   H      -13.21923         6.34573        12.19163
   H       -7.77717         0.29137         6.78853
   H       -7.41636         0.98410         8.37564
   H       -8.24591         2.57123         5.89838
   H       -6.61424         2.48188         6.57216
   H       -7.90846         3.26657         7.48348
   H      -13.10424        -5.34399         8.88639
   H      -13.67388        -6.44494         6.77331
   H      -17.81534        -6.20369         7.76282
   H      -17.24801        -5.11725         9.88353
   H      -16.13784        -2.53346        12.34232
   H      -17.66326        -2.98576        14.20576
   H      -17.16056        -7.17792        13.61142
   H      -15.63966        -6.72810        11.73865
   H      -18.44064        -4.59010        15.89836
   H      -18.24188        -6.32987        15.64367
   H      -20.19608        -4.53433        14.12518
   H      -20.62717        -5.66758        15.41064
   H      -19.99874        -6.26831        13.87220
   H      -17.05153        -7.59533         5.87517
   H      -15.34178        -7.62625         5.42041
   H      -17.21411        -5.22814         5.09810
   H      -16.67660        -6.29249         3.79614
   H      -15.51559        -5.25580         4.63948
   H      -11.79957        -8.36283        11.44826
   H      -10.35498        -9.30828        11.09704
   H      -11.16497        -6.76111         9.61597
   H      -11.34325        -8.40784         9.00372
   H       -9.73160        -7.73740         9.28411
   H       -0.71701        -7.92551        12.52668
   H       -0.26716        -8.39541        10.13053
   H       -2.15734        -8.69369         8.56783
   H       -4.48328        -8.47304         9.39798
   H       -4.44459        -3.50213        19.37607
   H       -2.89797        -3.99050        20.08640
   H       -5.50933        -5.57393        20.27786
   H       -4.79696        -4.60737        21.57380
   H       -3.96916        -6.05501        20.99052
*
