# ORCA input file
# SCF done       -278.109968092772          0.000215452036
! wb97x-d3 def2-SVP def2/J RIJCOSX Grid4 TightSCF
%maxcore 5000
%tddft
    Mode sTDA
    Ethresh 5.0
    maxcore 5000
end

%pal
  nprocs 6
  end
* xyz -1 2
   C        2.35130        -1.97350        -0.47179
   C        2.53721        -1.28679         0.75054
   C        1.70440        -0.24024         1.13813
   C        0.64941         0.06458         0.31095
   C        0.43589        -0.65270        -0.88990
   C        1.30408        -1.65855        -1.30611
   C        3.42169        -3.03866        -0.66124
   C        4.16272        -2.93393         0.64844
   C        3.63308        -1.91260         1.42186
   C        5.17917        -3.63443         1.28633
   C        5.42815        -3.15031         2.56059
   S        4.38055        -1.79996         2.96135
   C       -0.41975         1.12983         0.50183
   C       -1.31206         0.85018        -0.68113
   C       -0.78648        -0.17073        -1.45535
   C       -2.55402         1.29347        -1.12241
   C       -2.99281         0.59686        -2.23419
   S       -1.81385        -0.58982        -2.76591
   C        6.33568        -3.63698         3.55090
   C       -4.25035         0.66824        -2.91722
   C       -1.25560         0.97826         1.75582
   C        0.26799         2.48112         0.44249
   C        2.89174        -4.45066        -0.80325
   C        4.25930        -2.63431        -1.86137
   C        7.32446        -4.61127         3.32722
   C        8.09256        -5.14261         4.38742
   C        7.99046        -4.70175         5.71565
   C        7.07710        -3.64829         5.92887
   C        6.26196        -3.15111         4.87532
   C       -5.37389         1.35915        -2.44470
   C       -6.61381         1.35040        -3.14868
   C       -6.80537         0.61017        -4.31308
   C       -5.69074        -0.11809        -4.77760
   C       -4.44131        -0.06609        -4.10845
   N        6.77988        -2.94299         7.02497
   N        5.85322        -2.11108         6.64152
   N        5.49644        -2.17879         5.38965
   N       -5.53296        -0.88119        -5.86779
   N       -4.28455        -1.25820        -5.81433
   N       -3.58127        -0.81489        -4.81016
   C        8.75079        -5.34502         6.73597
   C        8.61156        -5.31432         8.08155
   C       -8.00405         0.63882        -5.12171
   C       -8.54308        -0.45217        -5.70056
   C       -3.70109        -2.08376        -6.83157
   C        5.23433        -1.20032         7.56079
   C       -8.23230        -1.84787        -5.37314
   N       -8.93401        -2.69634        -6.21491
   C       -9.81612        -2.15314        -7.10405
   S       -9.81330        -0.37660        -6.91466
   C        9.48547        -6.14875         8.91715
   N        9.12242        -6.05359        10.24700
   C        8.06219        -5.25011        10.56044
   S        7.44254        -4.47302         9.07388
   C        9.80476        -6.82077        11.27483
   O       10.39772        -6.83995         8.52231
   O        7.61187        -5.06500        11.65644
   C        1.59547        -4.79040        -0.44528
   C        1.15888        -6.09871        -0.55442
   C        2.00538        -7.10029        -1.00819
   C        3.30842        -6.75842        -1.34773
   C        3.74807        -5.45344        -1.24378
   C        3.84450        -2.97684        -3.14248
   C        4.57533        -2.58248        -4.24674
   C        5.73763        -1.83583        -4.10394
   C        6.14254        -1.48757        -2.82282
   C        5.41312        -1.87756        -1.71464
   C       -2.07870         2.02779         2.14898
   C       -2.89958         1.90214         3.25217
   C       -2.92474         0.72593         3.99150
   C       -2.11098        -0.32289         3.58782
   C       -1.28848        -0.20311         2.48149
   C        0.39929         3.16953        -0.75509
   C        1.06872         4.37861        -0.79937
   C        1.63178         4.92610         0.34513
   C        1.50396         4.22988         1.54005
   C        0.83483         3.02205         1.58986
   O       -7.53122        -2.24990        -4.47426
   C       -8.80035        -4.13927        -6.10310
   O      -10.49632        -2.74759        -7.88938
   C       -3.85117         0.57825         5.16451
   C        2.31723         6.26173         0.30183
   C        6.50895        -1.37261        -5.30648
   C        1.51182        -8.50851        -1.17797
   C        0.94283        -8.70735        -2.58436
   C        6.01254         0.00086        -5.76257
   C       -3.11654        -1.22221        -7.94693
   C        1.31049         7.38773         0.54587
   C       -5.22815         0.09878         4.70089
   C        4.32022        -1.95797         8.51790
   C        9.06114        -8.11512        11.57831
   C       -9.90005        -4.73075        -5.23075
   O        8.96319        -6.18324         4.11565
   C        8.34205        -7.45453         4.12409
   O        7.48056        -5.06015         2.04499
   C        8.79169        -5.27165         1.54839
   O       -7.60398         2.11348        -2.59243
   C       -8.93582         1.63649        -2.58229
   O       -5.21438         2.07087        -1.29082
   C       -6.21934         2.04653        -0.29440
   H        1.87555         0.28276         2.06629
   H        1.13305        -2.18090        -2.23459
   H        5.70249        -4.47383         0.87239
   H       -3.12130         2.08046        -0.66714
   H        9.54271        -5.99764         6.38204
   H       -8.43703         1.60698        -5.33741
   H       -2.91828        -2.67957        -6.35877
   H       -4.48771        -2.73292        -7.22046
   H        6.02380        -0.69443         8.12137
   H        4.67398        -0.47935         6.96354
   H       10.80602        -7.03225        10.89259
   H        9.86616        -6.19771        12.16999
   H        0.91901        -4.03058        -0.08264
   H        0.14286        -6.34405        -0.27871
   H        3.98694        -7.52449        -1.69607
   H        4.76364        -5.20476        -1.51643
   H        2.95045        -3.56852        -3.27577
   H        4.23996        -2.86235        -5.23557
   H        7.04309        -0.90484        -2.68858
   H        5.74919        -1.59347        -0.72835
   H       -2.06689         2.95199         1.58934
   H       -3.52879         2.73043         3.54732
   H       -2.11843        -1.24849         4.14618
   H       -0.66765        -1.03566         2.18494
   H       -0.02656         2.76121        -1.65975
   H        1.15758         4.90313        -1.74035
   H        1.93671         4.63719         2.44304
   H        0.74136         2.49988         2.53117
   H       -8.84702        -4.55721        -7.11127
   H       -7.81880        -4.32574        -5.66145
   H       -3.43936        -0.14247         5.87373
   H       -3.95806         1.53755         5.67547
   H        3.09603         6.30346         1.06607
   H        2.78732         6.40498        -0.67332
   H        7.57149        -1.30777        -5.06281
   H        6.38869        -2.08804        -6.12265
   H        2.33274        -9.21093        -1.01962
   H        0.73368        -8.72037        -0.44184
   H        1.70818        -8.51230        -3.33244
   H        0.58452        -9.72644        -2.71097
   H        0.11475        -8.02336        -2.75653
   H        6.13538         0.73066        -4.96544
   H        6.57046         0.33856        -6.63303
   H        4.95717        -0.04589        -6.02167
   H       -2.34741        -0.56646        -7.54670
   H       -2.67589        -1.85553        -8.71154
   H       -3.89664        -0.61548        -8.39996
   H        0.84022         7.26944         1.51960
   H        1.80517         8.35584         0.51382
   H        0.53211         7.36953        -0.21372
   H       -5.14308        -0.86091         4.19597
   H       -5.89937        -0.01251         5.54944
   H       -5.66316         0.81296         4.00498
   H        4.89537        -2.70163         9.06377
   H        3.87358        -1.26685         9.22653
   H        3.52702        -2.45782         7.96737
   H        8.98960        -8.72707        10.68196
   H        9.59495        -8.67377        12.34175
   H        8.05960        -7.89533        11.94073
   H      -10.87560        -4.52503        -5.66502
   H       -9.76984        -5.80673        -5.15803
   H       -9.85690        -4.30460        -4.23102
   H        9.12483        -8.17359         3.88972
   H        7.92229        -7.67975         5.11045
   H        7.54465        -7.51655         3.37565
   H        9.52046        -4.64026         2.05829
   H        9.09475        -6.31636         1.64455
   H        8.75391        -5.00429         0.49071
   H       -9.33716         1.84832        -1.58783
   H       -8.98159         0.56207        -2.76709
   H       -9.54368         2.16055        -3.32300
   H       -6.94688         2.84756        -0.44079
   H       -6.73277         1.08319        -0.26330
   H       -5.69344         2.20009         0.64977
*
