# ORCA input file
# SCF done       -206.017552557821          0.000872291820
! wb97x-d3 def2-SVP def2/J RIJCOSX Grid4 TightSCF
%maxcore 5000
%tddft
    Mode sTDA
    Ethresh 5.0
    maxcore 5000
end

%pal
  nprocs 6
  end
* xyz -1 2
   C       -6.65189        -1.56329        -0.30330
   O       -6.39495        -2.72176        -0.02512
   C       -7.66389        -0.71736         0.36422
   C       -8.50843        -1.04812         1.40333
   C       -9.38127        -0.06552         1.85743
   C      -10.34664        -0.36028         2.97238
   C       -9.40303         1.19958         1.27912
   C       -8.54915         1.52277         0.23408
   C       -7.66988         0.55584        -0.22870
   C       -6.66187         0.58064        -1.29367
   C       -6.36400         1.67627        -2.06356
   C       -7.00122         2.92922        -1.93953
   N       -7.47623         3.97323        -1.89322
   C       -5.38210         1.73152        -3.07486
   N       -4.59987         1.85773        -3.90691
   C       -6.05255        -0.73108        -1.34434
   C       -5.08288        -1.12497        -2.24097
   C       -4.39765        -2.33190        -2.37604
   S       -4.62874        -3.74849        -1.34643
   C       -3.39328        -4.58776        -2.20286
   C       -2.84674        -3.80823        -3.24033
   C       -3.40447        -2.54446        -3.35362
   C       -2.93620        -1.54241        -4.35665
   C       -1.86471        -0.62909        -3.75400
   S       -1.57795        -4.62247        -4.13852
   C       -1.78535        -5.99996        -3.11492
   C       -2.77480        -5.83802        -2.13777
   N       -2.87871        -6.97672        -1.38694
   C       -3.94880        -7.06328        -0.41934
   C       -1.94285        -7.88495        -1.84430
   C       -1.26476        -7.28753        -2.95404
   C       -0.29698        -7.97590        -3.71778
   N        0.37878        -7.55170        -4.77421
   S        1.32960        -8.75608        -5.28975
   N        0.91680        -9.86239        -4.18287
   C        0.01861        -9.32642        -3.37122
   C       -0.59838        -9.89744        -2.23682
   C       -1.55204        -9.19307        -1.43781
   N       -1.87134        -9.99913        -0.35971
   C       -2.68161        -9.80120         0.81928
   C       -4.03875       -10.49331         0.69257
   C       -1.17790       -11.17134        -0.47987
   C       -0.38443       -11.14063        -1.63170
   S        0.58192       -12.55522        -1.85247
   C       -0.07577       -13.20834        -0.36721
   C       -0.99597       -12.34730         0.25168
   S       -1.54884       -13.00114         1.74407
   C       -0.57630       -14.45634         1.50051
   C        0.17138       -14.39886         0.32551
   C        1.25153       -15.34526        -0.08663
   C        0.97996       -15.97557        -1.45292
   C       -0.56154       -15.37518         2.56806
   C       -0.38491       -16.73275         2.49052
   C       -0.09263       -17.62238         3.58949
   C        0.31545       -17.25702         4.84668
   C        0.60899       -18.16849         5.88178
   N        0.85352       -18.86009         6.76467
   C        0.52128       -15.92498         5.26394
   N        0.73231       -14.86774         5.65983
   C       -0.20511       -18.99452         3.09238
   C       -0.01682       -20.21648         3.71972
   C       -0.17181       -21.37653         2.97472
   C       -0.51847       -21.32047         1.62872
   C       -0.63335       -22.60339         0.85176
   C       -0.72022       -20.10267         0.98698
   C       -0.55534       -18.95368         1.73230
   C       -0.71340       -17.54518         1.29945
   O       -1.15226       -17.16252         0.23742
   C       -3.59717        -6.34939         0.88600
   F        0.56786       -23.02566         0.40961
   F       -1.13496       -23.60817         1.58557
   F       -1.41379       -22.49031        -0.23042
   F      -10.06532        -1.49396         3.62618
   F      -10.37598         0.61740         3.89287
   F      -11.60933        -0.48522         2.52045
   H       -8.48270        -2.03337         1.84244
   H      -10.09357         1.93998         1.65344
   H       -8.58708         2.50983        -0.19534
   H       -4.78462        -0.38074        -2.96653
   H       -2.50675        -2.08320        -5.20236
   H       -3.76471        -0.93544        -4.72368
   H       -1.01357        -1.21597        -3.41700
   H       -1.52604         0.08134        -4.50224
   H       -2.26259        -0.07311        -2.90851
   H       -4.81982        -6.56574        -0.85832
   H       -4.21311        -8.10446        -0.25847
   H       -2.14015       -10.24838         1.65980
   H       -2.78348        -8.74027         1.02376
   H       -3.90493       -11.57084         0.64566
   H       -4.65345       -10.26099         1.55744
   H       -4.56356       -10.18155        -0.20837
   H        2.18429       -14.77438        -0.14187
   H        1.37415       -16.12420         0.66630
   H        0.92895       -15.21080        -2.22317
   H        1.78004       -16.66780        -1.70166
   H        0.03902       -16.51746        -1.43378
   H       -0.74121       -14.94140         3.54539
   H        0.24331       -20.28386         4.76305
   H       -0.02715       -22.33711         3.44518
   H       -0.99437       -20.05004        -0.05538
   H       -3.54170        -5.27712         0.72027
   H       -4.36851        -6.53840         1.62691
   H       -2.63745        -6.67927         1.27921
*
