# ORCA input file
# SCF done       -177.528624252023          0.000733873458
! wb97x-d3 def2-SVP def2/J RIJCOSX Grid4 TightSCF
%maxcore 5000
%tddft
    Mode sTDA
    Ethresh 5.0
    maxcore 5000
end

%pal
  nprocs 6
  end
* xyz -1 2
   C        1.51460        -3.57071         1.97539
   C        1.83228        -4.60827         2.84555
   C        3.07925        -4.67147         3.47626
   C        4.02986        -3.68547         3.24469
   C        3.70741        -2.65685         2.38388
   C        2.46123        -2.58676         1.74184
   C        4.53861        -1.49771         1.99309
   C        3.68872        -0.68268         1.10237
   C        2.43830        -1.39336         0.89816
   C        3.92897         0.57535         0.60107
   C        5.05324         1.40803         0.66875
   C        6.34477         1.22052         1.16548
   C        7.13572         2.33761         1.01471
   C        6.46839         3.41025         0.39619
   S        4.85712         3.03163        -0.01360
   C        8.55418         2.71929         1.35759
   C        8.58161         4.14670         0.87376
   C        7.35100         4.50521         0.31502
   C        9.50265         5.18205         0.85575
   C        8.98622         6.33718         0.28508
   S        7.32812         6.12891        -0.24490
   C        9.63750         7.58251         0.12562
   S       11.27049         7.80505         0.72569
   C       11.24919         9.43273         0.18269
   C       10.04373         9.78025        -0.43385
   C        9.13488         8.73395        -0.46423
   C       12.11015        10.54697         0.17086
   C       11.45419        11.62358        -0.44099
   C       10.07977        11.21194        -0.90573
   S       13.69571        10.93585         0.67658
   C       13.49938        12.57234         0.05642
   C       12.22690        12.76744        -0.47612
   C       14.50499        13.55052         0.17215
   C       15.84793        13.38249         0.35625
   C       16.71084        12.24052         0.15973
   C       17.94239        12.49908         0.90292
   C       17.93648        13.83912         1.33233
   C       16.66051        14.47959         0.93719
   C       19.02613        11.68609         1.18414
   C       20.09517        12.22608         1.89159
   C       20.08920        13.56305         2.30414
   C       19.00036        14.38037         2.02391
  Cl       21.43206        14.20103         3.16380
  Cl       21.44087        11.22542         2.26014
   O       16.32673        15.63109         1.09516
   C       16.54378        11.25050        -0.77502
   C       17.46597        10.20688        -0.98750
   C       15.47058        11.22529        -1.68905
   C        9.97332        11.29705        -2.44192
   C        8.97006        12.05736        -0.25587
   C        9.01195        12.02625         1.26715
   C       11.04589        10.49232        -3.16633
   C        9.57141         1.84387         0.60044
   C        8.81537         2.62449         2.87228
   C        7.85674         3.47324         3.69837
   C        9.38166         1.87456        -0.91118
   O        5.67730        -1.29879         2.36625
  Cl        0.66225        -5.82956         3.14504
  Cl        3.43834        -5.96892         4.54257
   C        1.42292        -1.06855         0.03542
   C        0.23801        -1.82211        -0.10726
   C        1.40110         0.02251        -0.85951
   N        1.29523         0.87017        -1.62783
   N       -0.74916        -2.38304        -0.27654
   N       18.17530         9.32707        -1.18823
   N       14.63796        11.20492        -2.47972
   H        0.54254        -3.55688         1.51108
   H        4.99523        -3.71929         3.72440
   H        3.10033         1.03128         0.07200
   H        6.64957         0.29519         1.61770
   H       10.50774         5.13058         1.23450
   H        8.14762         8.77574        -0.88846
   H       11.92712        13.70907        -0.89947
   H       14.16096        14.58050         0.19096
   H       19.05892        10.65182         0.88194
   H       18.98652        15.41223         2.33737
   H        8.98504        10.93725        -2.73597
   H       10.05045        12.34663        -2.73128
   H        9.07475        13.08738        -0.60144
   H        8.00444        11.68275        -0.60072
   H        9.96059        12.40990         1.63576
   H        8.21287        12.64129         1.67327
   H        8.88442        11.01136         1.63698
   H       10.97742         9.43725        -2.91060
   H       10.91463        10.59090        -4.24084
   H       12.04265        10.84440        -2.91231
   H       10.57625         2.19184         0.84750
   H        9.47018         0.81783         0.95792
   H        8.72094         1.57898         3.16987
   H        9.84185         2.94182         3.06595
   H        6.82817         3.15742         3.54058
   H        8.08725         3.36889         4.75551
   H        7.94019         4.52470         3.43198
   H        9.49484         2.88538        -1.29676
   H       10.12431         1.24140        -1.38995
   H        8.39451         1.50944        -1.18494
*
