# ORCA input file
# SCF done       -218.706323234413          0.000420886452
! wb97x-d3 def2-SVP def2/J RIJCOSX Grid4 TightSCF
%maxcore 5000
%tddft
    Mode sTDA
    Ethresh 5.0
    maxcore 5000
end

%pal
  nprocs 6
  end
* xyz -1 2
   C        2.84168         3.63451       -11.50257
   O        1.89239         2.93708       -11.19130
   C        3.60509         3.55143       -12.76697
   C        3.41574         2.69256       -13.83039
   C        4.27335         2.81201       -14.91265
   C        5.28641         3.76977       -14.91352
   C        5.47542         4.63316       -13.84375
   C        4.62224         4.52033       -12.75796
   C        4.55441         5.26217       -11.49626
   C        5.39094         6.29234       -11.14600
   C        5.34239         7.02296        -9.94092
   N        5.37529         7.66865        -8.99076
   C        6.43595         6.77526       -11.96122
   N        7.30291         7.21709       -12.57048
   C        3.46176         4.70825       -10.72896
   C        3.07268         5.11965        -9.47210
   C      -13.56320         1.49472         6.80152
   O      -12.58941         1.72333         6.10595
   C      -13.85036         2.10360         8.11817
   C      -13.10133         3.02754         8.81790
   C      -13.58687         3.44947        10.04552
   C      -14.78993         2.95000        10.54242
   C      -15.54194         2.02094         9.83734
   C      -15.06342         1.59358         8.60925
   C      -15.60193         0.64117         7.63429
   C      -16.77887        -0.04945         7.78126
   C      -17.31776        -0.96927         6.85844
   N      -17.82702        -1.73072         6.16445
   C      -17.63063         0.06882         8.89945
   N      -18.36843         0.11643         9.77772
   C      -14.67320         0.58409         6.52765
   C      -14.80911        -0.20145         5.40232
   C      -13.98981        -0.33409         4.28222
   S      -12.48008         0.51830         3.97411
   C      -12.33596        -0.29665         2.48038
   C      -13.38361        -1.20313         2.21797
   C      -14.31485        -1.20713         3.22492
   C      -11.45234        -0.31362         1.38712
   C      -11.90976        -1.21435         0.42058
   C      -13.19895        -1.86867         0.86968
   S       -9.98053         0.44809         0.94181
   C       -9.95699        -0.46167        -0.55256
   C      -11.05437        -1.30751        -0.66786
   C       -2.77998         2.33638        -5.32862
   S       -2.15134         1.94817        -6.91583
   C       -0.93464         3.15024        -6.73029
   C       -1.02492         3.82205        -5.50715
   C       -2.05735         3.34950        -4.71288
   C        0.15411         3.65185        -7.46712
   C        0.77504         4.66298        -6.70375
   C        0.06932         4.85666        -5.37923
   S        0.88511         3.39187        -8.99056
   C        2.04566         4.67035        -8.64377
   C        1.82248         5.23902        -7.37472
   C        0.96144         4.48157        -4.17906
   C        2.15373         5.40055        -3.95161
   C       -0.48742         6.29315        -5.32246
   C       -1.30411         6.61986        -4.07955
   C      -14.39250        -1.48992        -0.02945
   C      -14.31866        -2.01667        -1.45611
   C      -12.96326        -3.38697         0.99318
   C      -14.15560        -4.18365         1.50478
   F      -15.23583         3.37454        11.73096
   F      -12.89372         4.34500        10.76074
   F        4.12726         1.99914       -15.96730
   F        6.10108         3.86285       -15.97153
   C       -8.89900        -0.27720        -1.47635
   S       -7.63245         0.88324        -1.12758
   C       -6.87679         0.51045        -2.61868
   C       -7.55425        -0.47309        -3.34300
   C       -8.70477        -0.90814        -2.69835
   C       -5.76719         0.95531        -3.36593
   C       -5.72290         0.26277        -4.57575
   C       -6.84377        -0.75117        -4.64868
   S       -4.51061         2.11055        -3.21353
   C       -3.90744         1.66497        -4.80179
   C       -4.66712         0.66170        -5.38422
   C       -7.75483        -0.51746        -5.86340
   C       -8.28712         0.90916        -5.93299
   C       -6.20828        -2.15922        -4.67070
   C       -7.19496        -3.31297        -4.55447
   H        2.63086         1.95324       -13.82508
   H        6.27363         5.35506       -13.89505
   H        3.64677         5.92641        -9.03301
   H      -12.17153         3.41038         8.42856
   H      -16.46442         1.66768        10.26754
   H      -15.69177        -0.82767         5.35815
   H      -15.21842        -1.79016         3.24705
   H      -11.19340        -1.95527        -1.51330
   H       -2.30027         3.69481        -3.72415
   H        2.43254         6.04861        -7.01542
   H        0.33771         4.46459        -3.28403
   H        1.32376         3.46339        -4.34363
   H        1.83729         6.42081        -3.75401
   H        2.71917         5.05029        -3.09100
   H        2.81549         5.39816        -4.81277
   H        0.35255         6.98459        -5.39956
   H       -1.11275         6.43980        -6.20703
   H       -0.71620         6.49739        -3.17421
   H       -1.63601         7.65449        -4.12874
   H       -2.18471         5.98705        -4.01546
   H      -15.30381        -1.85355         0.44685
   H      -14.45162        -0.39878        -0.05660
   H      -14.27536        -3.10210        -1.47703
   H      -15.20593        -1.70392        -2.00198
   H      -13.44895        -1.61878        -1.97134
   H      -12.66414        -3.76588         0.01463
   H      -12.11941        -3.53498         1.67208
   H      -15.01165        -4.08771         0.84284
   H      -13.88852        -5.23660         1.56032
   H      -14.44226        -3.85624         2.49975
   H       -9.39276        -1.63632        -3.08628
   H       -4.44130         0.26824        -6.35923
   H       -7.18845        -0.73957        -6.76991
   H       -8.59677        -1.20837        -5.80932
   H       -7.47178         1.62265        -6.02611
   H       -8.94028         1.02110        -6.79493
   H       -8.85526         1.15187        -5.03772
   H       -5.64495        -2.25544        -5.60118
   H       -5.49617        -2.21996        -3.84387
   H       -7.91172        -3.30642        -5.37103
   H       -6.65288        -4.25513        -4.58999
   H       -7.73234        -3.26774        -3.61129
*
