# ORCA input file
# SCF done       -233.438342954054          0.000516984353
! wb97x-d3 def2-SVP def2/J RIJCOSX Grid4 TightSCF
%maxcore 5000
%tddft
    Mode sTDA
    Ethresh 5.0
    maxcore 5000
end

%pal
  nprocs 6
  end
* xyz -1 2
   C        1.05644        -0.48241         0.19417
   C        0.93333         0.90869        -0.03666
   C       -0.34407         1.50255        -0.08680
   C       -1.42967         0.64972         0.07605
   C       -1.30649        -0.73801         0.33303
   C       -0.02854        -1.33084         0.39558
   S       -3.09679         1.14293         0.06109
   C       -3.62741        -0.49484         0.38522
   C       -2.56946        -1.35345         0.49339
   S        2.73037        -0.95851         0.25188
   C        3.25808         0.68598        -0.05036
   C        2.19394         1.53206        -0.18846
   C        0.17194        -2.73686         0.67608
   C       -0.50521         2.93014        -0.26658
   C        1.11292        -3.56717         0.13183
   C        1.05920        -4.88032         0.63738
   C        0.10094        -5.06149         1.60002
   S       -0.76980        -3.58517         1.87303
   C        0.22241         3.93730         0.30431
   C       -0.22645         5.22241        -0.05886
   C       -1.28355         5.20974        -0.93049
   S       -1.75107         3.57852        -1.29748
   C        4.63323         1.06174        -0.08304
   C       -5.00123        -0.83249         0.56279
   S        4.98226         2.79262        -0.02464
   C        6.67858         2.47617        -0.02238
   C        6.92278         1.10533        -0.07921
   C        5.77805         0.29071        -0.11985
   C       -6.14490        -0.11457         0.27183
   C       -7.28740        -0.83120         0.66596
   C       -7.04144        -2.07571         1.24440
   S       -5.34727        -2.39824         1.30126
   C       10.30765         3.00140         0.11416
   S       10.50571         4.71585         0.35535
   C       12.24126         4.56700         0.39661
   C       12.60899         3.24739         0.21720
   C       11.54079         2.36116         0.05558
   C       13.02414         5.72184         0.60578
   C       14.37452         5.81330         0.70900
   S       15.55782         4.53315         0.60428
   C       16.88465         5.66056         0.87923
   N       16.40824         6.91864         1.03738
   C       15.03583         7.09545         0.95175
   S       18.45233         5.21636         0.94099
   O       14.49072         8.16908         1.07640
   C       17.28324         8.05419         1.25623
   C       17.84087         8.58327        -0.05882
  Cl        0.49154         6.65000         0.57880
   S       -2.18838         6.52749        -1.63254
   C       -0.84213         7.63656        -2.22678
  Cl        2.09866        -6.11821         0.04863
   S       -0.37081        -6.48915         2.48771
   C        1.25944        -7.18241         2.99232
   C      -10.66390        -2.45145         1.69434
   C      -11.90083        -1.91056         1.36060
   C      -12.95779        -2.63993         1.90765
   C      -12.57733        -3.73497         2.66276
   S      -10.84293        -3.87502         2.68722
   C      -13.43733        -4.61965         3.34216
   C      -13.09655        -5.68269         4.11465
   S      -11.48715        -6.26002         4.46609
   C      -12.12294        -7.54878         5.48901
   N      -13.47681        -7.50081         5.52802
   C      -14.09794        -6.50429         4.79223
   O      -15.29873        -6.35306         4.74734
   C      -14.26210        -8.45588         6.28564
   C      -14.46637        -9.74796         5.50523
   S      -11.18444        -8.62560         6.27502
   C       11.76385         0.89192        -0.11495
   C       11.74674         0.17632         1.23741
   C        5.86963        -1.20004        -0.16664
   C        5.96518        -1.78864         1.24193
   C        7.83153         3.25865         0.03509
   C        8.98131         2.49454         0.02360
   S        8.61696         0.77831        -0.07006
   C       -1.27593         8.30351        -3.51657
   C        1.11853        -7.85273         4.34410
   S       -8.97993        -0.50262         0.60073
   C       -9.34120        -2.04073         1.36969
   C       -8.19238        -2.75544         1.64335
   C       -6.23408         1.24336        -0.34561
   C       -6.27342         2.33216         0.72825
   C      -12.13247        -0.67549         0.54868
   C      -12.14173         0.56864         1.43931
   H       -2.70584        -2.40363         0.67461
   H        2.31700         2.57504        -0.41579
   H        1.79259        -3.27985        -0.64861
   H        1.01414         3.78093         1.01347
   H       13.63477         2.92582         0.20080
   H       12.49429         6.66174         0.71003
   H       18.09463         7.73473         1.91456
   H       16.67749         8.81839         1.74898
   H       18.43054         7.81637        -0.55555
   H       18.47796         9.44071         0.13639
   H       17.03016         8.89100        -0.71519
   H        0.03747         7.01358        -2.37605
   H       -0.64610         8.37179        -1.44770
   H        1.95931        -6.34992         3.03054
   H        1.57174        -7.89374         2.22918
   H      -13.99108        -2.37835         1.76049
   H      -14.50040        -4.42820         3.25269
   H      -15.22238        -7.97426         6.48488
   H      -13.73917        -8.65574         7.22396
   H      -14.97612        -9.54470         4.56636
   H      -15.07137       -10.43355         6.09107
   H      -13.50862       -10.21863         5.29652
   H       12.73746         0.74220        -0.58528
   H       11.00330         0.46243        -0.76860
   H       12.52880         0.57117         1.88172
   H       11.91371        -0.88841         1.09883
   H       10.78916         0.31390         1.73338
   H        6.76804        -1.46878        -0.72786
   H        5.00363        -1.61709        -0.68131
   H        6.84187        -1.39971         1.75502
   H        6.04528        -2.87084         1.18794
   H        5.08070        -1.53553         1.82112
   H        7.83977         4.33194         0.08843
   H       -1.48093         7.55817        -4.28143
   H       -0.48726         8.96363        -3.87152
   H       -2.17691         8.89111        -3.35700
   H        0.79398        -7.13550         5.09431
   H        2.07646        -8.26980         4.64780
   H        0.38774        -8.65658         4.29642
   H       -8.19956        -3.72257         2.11185
   H       -7.15319         1.29029        -0.93494
   H       -5.38815         1.41570        -1.01177
   H       -7.13617         2.19295         1.37589
   H       -6.34085         3.31119         0.26214
   H       -5.37273         2.30060         1.33603
   H      -13.09896        -0.76447         0.04873
   H      -11.36352        -0.57237        -0.21806
   H      -12.92869         0.49184         2.18609
   H      -12.31592         1.45754         0.83902
   H      -11.18992         0.67974         1.95235
*
