# ORCA input file
# SCF done       -513.795498625447          0.000330292386
! wb97x-d3 def2-SVP def2/J RIJCOSX Grid4 TightSCF
%maxcore 5000
%tddft
    Mode sTDA
    Ethresh 5.0
    maxcore 5000
end

%pal
  nprocs 6
  end
* xyz -1 2
   C       -2.90818         6.67583         2.09462
   C       -2.28865         7.08654         0.89063
   C       -0.92529         7.34164         0.77948
   C       -0.15396         7.15384         1.94192
   C       -0.77647         6.75616         3.14989
   C       -2.13966         6.49837         3.25957
   C       -4.31922         6.54515         1.93674
   C       -4.73773         6.83242         0.68769
   S       -3.45958         7.27966        -0.38539
   C        1.25192         7.26206         2.08309
   C        1.70067         6.98902         3.34142
   S        0.39213         6.57257         4.43064
   C       -0.31679         7.79053        -0.45658
   C       -2.70840         6.04604         4.51444
   C        3.04367         7.02971         3.81273
   C        3.50529         6.79667         5.09003
   C        4.88693         6.94173         5.21215
   C        5.50034         7.28429         4.02628
   S        4.34863         7.43234         2.73786
   C       -2.39306         6.46368         5.77576
   C       -3.09384         5.75519         6.77487
   C       -3.93983         4.79541         6.30081
   S       -3.87567         4.75406         4.57353
   C       -4.78242         3.83660         7.06699
   C       -4.02043         2.53799         7.34333
   C        0.62833         8.76274        -0.62258
   C        0.99392         8.93846        -1.97401
   C        0.35331         8.10534        -2.84480
   S       -0.74977         7.08562        -1.98850
   C        0.45698         8.05164        -4.32877
   C       -0.63349         8.90502        -4.98135
   C        6.88575         7.51408         3.80869
   N        7.78286         7.45870         4.73184
   C        9.02747         7.72838         4.27545
   C        9.09582         8.01333         2.88494
   S        7.50251         7.91061         2.19864
   C       10.18071         7.75812         5.08988
   C       11.35534         8.10541         4.42438
   C       11.42112         8.40658         3.03716
   C       10.27210         8.35331         2.21791
   S       12.94584         8.22309         5.11418
   C       13.55442         8.67409         3.51508
   N       12.65944         8.71935         2.59022
   C       10.11252         7.46103         6.49616
   C        9.08595         6.87148         7.19018
   C        9.34200         6.73830         8.56478
   C       10.55718         7.22672         8.94278
   S       11.42021         7.85726         7.58161
   C       11.17577         7.24559        10.29778
   C       12.40046         6.33137        10.36724
   C       10.34603         8.62175         0.80618
   C       11.37717         9.19254         0.10322
   C       11.13096         9.28699        -1.27607
   C        9.91923         8.78612        -1.64908
   S        9.04654         8.19349        -0.27720
   C        9.31468         8.72587        -3.00903
   C        8.07705         9.61871        -3.11247
   C       14.92830         8.98260         3.32174
   S       16.09118         8.70889         4.57873
   C       17.36696         9.33964         3.58213
   C       16.88892         9.73408         2.35164
   C       15.51785         9.52607         2.20083
  Cl       -2.89685         6.08768         8.45264
  Cl        2.16025        10.10487        -2.47013
   C       20.56632         9.03149         5.41984
   C       21.13927         9.80379         4.37865
   C       22.46761        10.21061         4.37290
   C       23.26403         9.77409         5.45064
   C       22.69619         8.98577         6.48129
   C       21.36069         8.59633         6.49983
   C       19.18011         8.83154         5.22011
   C       18.70394         9.38579         4.06804
   S       19.95632        10.21148         3.16553
   C       24.65377         9.96760         5.63814
   C       25.14560         9.36903         6.76104
   S       23.89782         8.52770         7.65812
   C       23.02025        11.05084         3.32966
   C       20.83961         7.76357         7.56452
   C       26.48650         9.38555         7.23770
   C       27.01800         8.69814         8.30734
   C       28.37449         8.95202         8.50594
   C       28.89493         9.84523         7.59394
   S       27.69026        10.37242         6.46409
   C       21.15488         7.80518         8.89330
   C       20.49634         6.80637         9.64123
   C       19.69553         5.98248         8.90487
   S       19.73187         6.45699         7.24293
   C       18.82599         4.86573         9.36583
   C       17.37476         5.32775         9.52058
   C       23.86264        12.11673         3.47085
   C       24.19891        12.70957         2.23530
   C       23.63740        12.10526         1.14811
   S       22.64617        10.78011         1.65114
   C       23.73727        12.49043        -0.28624
   C       22.55920        13.37828        -0.69488
   C       30.22700        10.33763         7.54620
   N       31.17728         9.91392         8.30572
   C       32.34559        10.56356         8.10136
   C       32.29038        11.57954         7.10965
   S       30.68893        11.63490         6.43555
   C       33.53162        10.29691         8.81867
   C       34.60305        11.12995         8.50240
   C       34.53913        12.16988         7.53587
   C       33.36365        12.41083         6.78978
   S       36.19771        11.07871         9.19053
   C       36.63262        12.45119         8.16243
   N       35.68721        12.87244         7.39603
   C       33.58751         9.24802         9.80198
   C       32.70420         8.21437         9.98759
   C       33.04957         7.36693        11.05294
   C       34.19047         7.74040        11.69853
   S       34.87208         9.15941        10.97937
   C       34.86994         7.07955        12.84744
   C       36.19075         6.43730        12.41895
   C       33.30906        13.44017         5.78612
   C       34.21778        14.44005         5.54393
   C       33.86014        15.27651         4.47448
   C       32.68417        14.92825         3.87925
   S       31.98635        13.54625         4.65206
   C       31.98816        15.58365         2.73709
   C       30.65095        16.18880         3.16746
   C       37.92512        13.03816         8.24082
   S       39.20942        12.26878         9.11650
   C       40.28709        13.58306         8.75660
   C       39.65951        14.54924         8.00115
   C       38.33289        14.23916         7.70195
  Cl       20.70224         6.64533        11.34300
  Cl       25.24038        14.07641         2.12184
   C       43.63998        12.81548        10.13104
   C       43.97137        14.16192         9.83795
   C       45.19955        14.73171        10.15081
   C       46.15418        13.88226        10.74566
   C       45.82972        12.53124        11.01987
   C       44.59263        11.96591        10.72795
   C       42.29962        12.51861         9.78752
   C       41.63235        13.56563         9.22239
   S       42.63248        14.99766         9.09969
   C       47.49894        14.17909        11.07419
   C       48.18690        13.11807        11.58613
   S       47.19301        11.67947        11.69369
   C       45.49696        16.12733         9.89977
   C       44.33309        10.56621        10.99635
   C       49.54084        13.08977        12.02401
   C       50.28124        12.00089        12.43035
   C       51.58313        12.32948        12.80645
   C       51.85103        13.67742        12.70005
   S       50.47394        14.55338        12.11498
   C       44.75370         9.82525        12.06430
   C       44.38557         8.46708        11.96346
   C       43.69184         8.15075        10.83165
   S       43.48126         9.56157         9.85509
   C       43.20396         6.81962        10.37815
   C       44.21300         6.16098         9.43395
   C       46.15222        17.00418        10.71696
   C       46.26031        18.29346        10.15387
   C       45.70871        18.41469         8.91150
   S       45.01511        16.90823         8.42026
   C       45.59834        19.62743         8.05551
   C       44.24103        20.30816         8.24931
   C       53.06537        14.33818        13.02934
   N       54.14204        13.72967        13.38937
   C       55.15765        14.57646        13.67470
   C       54.83377        15.95247        13.53202
   S       53.18730        16.10238        12.99555
   C       56.43633        14.16011        14.10566
   C       57.32136        15.19925        14.39089
   C       56.99473        16.57509        14.25618
   C       55.71826        16.99159        13.81885
   S       58.96707        15.04935        14.93075
   C       59.08088        16.81409        14.92502
   N       58.00562        17.42185        14.56288
   C       56.76466        12.76454        14.22562
   C       56.07144        11.68721        13.73234
   C       56.67049        10.45218        14.02705
   C       57.82008        10.56326        14.75123
   S       58.18981        12.22254        15.07441
   C       58.73670         9.48360        15.21187
   C       60.03445         9.47685        14.40092
   C       55.38346        18.38609        13.70144
   C       56.07731        19.46803        14.18281
   C       55.46180        20.69889        13.90359
   C       54.29861        20.58035        13.20274
   S       53.93908        18.91886        12.87949
   C       53.36725        21.65264        12.75415
   C       52.02436        21.56616        13.48183
   C       60.28205        17.48145        15.30015
   S       61.68572        16.60927        15.83011
   C       62.54855        18.07428        16.04924
   C       61.80354        19.16962        15.73299
   C       60.50863        18.83705        15.30477
  Cl       44.78074         7.31273        13.17808
  Cl       47.03445        19.59505        10.97383
   H       -4.98416         6.26130         2.73075
   H       -5.74114         6.81361         0.30978
   H        1.91781         7.50887         1.27656
   H        2.84910         6.53367         5.90079
   H        5.43858         6.81011         6.12427
   H       -1.71409         7.26685         5.99346
   H       -5.68802         3.61297         6.49991
   H       -5.06887         4.29935         8.01380
   H       -3.72882         2.06491         6.40834
   H       -4.64639         1.84828         7.90332
   H       -3.12358         2.74383         7.92248
   H        1.02036         9.36481         0.17617
   H        0.35720         7.01762        -4.66417
   H        1.43982         8.42213        -4.62694
   H       -1.61775         8.54646        -4.68869
   H       -0.55065         8.85585        -6.06389
   H       -0.53591         9.94253        -4.67099
   H        8.18382         6.54427         6.70977
   H        8.64648         6.29557         9.25638
   H       10.43046         6.92388        11.02838
   H       11.47977         8.26597        10.54674
   H       12.12046         5.30581        10.13723
   H       12.83596         6.35882        11.36304
   H       13.15085         6.65417         9.64907
   H       12.27646         9.53129         0.58056
   H       11.83139         9.71026        -1.97490
   H        9.02973         7.69510        -3.23734
   H       10.06295         9.04220        -3.73907
   H        7.32312         9.29963        -2.39644
   H        7.65388         9.56334        -4.11239
   H        8.33801        10.65332        -2.90130
   H       17.52650        10.15240         1.59301
   H       14.95696         9.76293         1.31604
   H       18.54087         8.30221         5.90224
   H       25.28297        10.50314         4.95112
   H       26.42886         8.03577         8.91659
   H       28.97224         8.52145         9.28766
   H       21.80056         8.53880         9.33855
   H       19.20061         4.50424        10.32543
   H       18.86958         4.04711         8.64436
   H       17.31119         6.13414        10.24723
   H       16.75371         4.50321         9.86045
   H       16.98843         5.68625         8.56906
   H       24.19927        12.49787         4.41721
   H       23.74547        11.59148        -0.90556
   H       24.67384        13.02973        -0.44143
   H       21.62007        12.85092        -0.54352
   H       22.64206        13.65193        -1.74339
   H       22.54715        14.28662        -0.09734
   H       31.84116         8.07783         9.36434
   H       32.46964         6.50595        11.33651
   H       34.20402         6.31786        13.25863
   H       35.07012         7.81744        13.62871
   H       36.01477         5.68611        11.65225
   H       36.67255         5.96131        13.26937
   H       36.86111         7.19280        12.01551
   H       35.10908        14.55651         6.12971
   H       34.45655        16.11201         4.15153
   H       31.80780        14.84864         1.94778
   H       32.63664        16.36450         2.33379
   H       29.99514        15.41245         3.55487
   H       30.16306        16.66695         2.32169
   H       30.80496        16.93182         3.94677
   H       40.16135        15.44409         7.67800
   H       37.67516        14.86102         7.12381
   H       41.83036        11.56630         9.95296
   H       47.96063        15.13501        10.90783
   H       49.87793        11.00383        12.44745
   H       52.31640        11.62729        13.15717
   H       45.27652        10.22874        12.91123
   H       42.24830         6.93674         9.86341
   H       43.05334         6.18438        11.25334
   H       44.36954         6.78310         8.55552
   H       43.84710         5.18930         9.11294
   H       45.16715         6.02532         9.93748
   H       46.50695        16.76106        11.70143
   H       45.71633        19.34636         7.00723
   H       46.39809        20.32085         8.32301
   H       43.43644        19.62510         7.98651
   H       44.17066        21.19098         7.61935
   H       44.11536        20.60910         9.28660
   H       55.16413        11.79821        13.17010
   H       56.26291         9.50660        13.71424
   H       58.22967         8.52213        15.10524
   H       58.97682         9.63019        16.26788
   H       59.82009         9.32112        13.34595
   H       60.69062         8.68108        14.74455
   H       60.55055        10.42775        14.51196
   H       56.99634        19.36220        14.72656
   H       55.86706        21.64693        14.21178
   H       53.19490        21.56286        11.67820
   H       53.83119        22.62263        12.94594
   H       51.55001        20.60826        13.28108
   H       51.36129        22.36023        13.14742
   H       52.16898        21.66186        14.55566
   H       63.56073        18.03982        16.40057
   H       62.16979        20.17794        15.80443
   H       59.76106        19.54681        15.00353
*
