# ORCA input file
# SCF done       -355.096719233606          0.000951462245
! wb97x-d3 def2-SVP def2/J RIJCOSX Grid4 TightSCF
%maxcore 5000
%tddft
    Mode sTDA
    Ethresh 5.0
    maxcore 5000
end

%pal
  nprocs 6
  end
* xyz -1 2
   C        3.98302         1.48452        -5.94105
   C        2.76263         1.03009        -6.47275
   C        1.79976         0.42650        -5.63121
   C        1.98534         0.23492        -4.26416
   C        3.23394         0.62951        -3.74483
   C        4.19503         1.23776        -4.58862
   C        2.31828         1.08258        -7.82699
   C        1.07759         0.58262        -7.99381
   S        0.36377         0.00461        -6.52899
   C        3.70802         0.47753        -2.41813
   C        4.96829         0.95937        -2.22826
   S        5.63111         1.65363        -3.70255
   C        4.94582         2.20036        -6.75392
   C        0.93370        -0.31902        -3.43722
   C        4.70569         3.16952        -7.68757
   C        5.88003         3.68667        -8.26965
   C        7.01816         3.11288        -7.79292
   S        6.65585         1.91545        -6.59405
   C        0.06646        -1.33158        -3.74005
   C       -0.88277        -1.57517        -2.72896
   C       -0.76321        -0.74208        -1.65914
   S        0.55950         0.35497        -1.87452
   C        8.43385         3.43097        -8.13061
   C        9.09894         4.23054        -7.00748
   C       -1.57861        -0.70898        -0.41247
   C       -0.78148        -1.21396         0.79155
   C        5.78017         1.03861        -1.05430
   S        6.95406         2.31988        -1.02927
   C        7.53979         1.86671         0.54760
   C        6.83487         0.76809         1.02185
   C        5.84851         0.28225         0.10449
   C        7.06628         0.16142         2.32587
   C        6.34137        -1.08274         2.55671
   C        5.42078        -1.62338         1.60459
   C        5.08943        -0.95089         0.34628
   C        6.46860        -1.85728         3.68347
   S        5.48278        -3.27314         3.56605
   C        4.88161        -2.81963         2.00692
   O        7.81468         0.64664         3.16704
   O        4.26187        -1.40003        -0.43112
   C        7.33509        -1.64503         4.87225
   C        8.77775        -2.06913         4.58162
   C        3.88627        -3.68156         1.31813
   C        2.46403        -3.16049         1.54138
   C       11.16980         5.26336         0.54634
   C       10.35136         4.20580         1.00361
   C       10.60772         3.57076         2.24242
   C       11.67903         3.92179         3.06253
   C       12.54762         4.91504         2.56778
   C       12.27273         5.56083         1.33415
   C        9.24713         3.62524         0.35203
   C        8.63611         2.61823         1.06007
   S        9.41741         2.34812         2.60061
   C       13.75206         5.37683         3.14911
   C       14.37942         6.34473         2.42309
   S       13.47763         6.76411         0.97389
   C       10.84323         5.98470        -0.66421
   C       11.85646         3.29832         4.35669
   C        9.60426         6.36090        -1.10702
   C        9.63512         7.04857        -2.33497
   C       10.89029         7.19538        -2.84088
   S       12.07321         6.49554        -1.78585
   C       11.60659         2.00170         4.71320
   C       11.81293         1.74727         6.08203
   C       12.20201         2.84460         6.78744
   S       12.35048         4.22325         5.75017
   C       11.31166         7.89505        -4.08667
   C       11.87129         9.28401        -3.77116
   C       12.51290         2.95182         8.24091
   C       14.01474         3.11497         8.48348
   C       15.57576         7.07407         2.70296
   S       15.66570         8.69659         2.09043
   C       17.23291         8.96611         2.80447
   C       17.65396         7.82846         3.48195
   C       16.72249         6.74447         3.40644
   C       18.91718         7.73083         4.20074
   C       19.20955         6.41034         4.74812
   C       18.31932         5.30053         4.59989
   C       17.02730         5.40245         3.91809
   C       20.35039         6.09544         5.44489
   S       20.34651         4.42789         5.90340
   C       18.80632         4.14808         5.16380
   O       19.68654         8.67564         4.33780
   O       16.28869         4.44097         3.77572
   C       21.51360         6.95849         5.77769
   C       22.45819         7.08908         4.57914
   C       18.17989         2.80251         5.23985
   C       17.12174         2.75131         6.34541
   C       17.62385        13.58495         1.00133
   C       17.96829        12.40526         1.69933
   C       19.18388        12.31744         2.42017
   C       20.10080        13.36472         2.48862
   C       19.78291        14.52647         1.75932
   C       18.56157        14.60907         1.04189
   C       17.23627        11.20706         1.79642
   C       17.82274        10.24354         2.58135
   S       19.35215        10.78440         3.23145
   C       20.56064        15.70180         1.62305
   C       19.97131        16.66822         0.86529
   S       18.39427        16.16343         0.27430
   C       16.36628        13.73518         0.30073
   C       21.29054        13.24792         3.30553
   C       16.12636        14.38334        -0.87949
   C       14.77295        14.35786        -1.26816
   C       13.96567        13.71071        -0.38400
   S       14.87852        13.10443         0.95637
   C       22.07926        12.14697         3.49402
   C       23.11583        12.35387         4.42391
   C       23.11790        13.60147         4.96801
   S       21.83777        14.56402         4.30897
   C       12.50552        13.43273        -0.48112
   C       12.25120        11.96831        -0.84728
   C       24.05698        14.17680         5.97183
   C       24.99050        15.20995         5.33888
   C       20.42013        17.99039         0.55735
   S       19.19673        19.21027         0.30822
   C       20.37642        20.41978         0.07215
   C       21.64856        19.93263         0.16233
   C       21.69115        18.52945         0.43195
   C       22.83060        20.78644        -0.02214
   C       24.09035        20.04620         0.02216
   C       24.14210        18.62717         0.22626
   C       22.95738        17.78907         0.45276
   C       25.33046        20.61092        -0.13787
   S       26.57023        19.40642        -0.06653
   C       25.42288        18.13483         0.18718
   O       22.74265        21.98844        -0.20748
   O       23.03706        16.58404         0.62960
   C       25.68188        22.02965        -0.40432
   C       25.63434        22.32291        -1.90689
   C       25.90227        16.73827         0.35917
   C       25.96715        16.35578         1.84019
   H        2.92228         1.45686        -8.63277
   H        0.51672         0.49879        -8.90413
   H        3.14132         0.01035        -1.63707
   H        3.72026         3.53445        -7.91660
   H        5.87819         4.46050        -9.01718
   H        0.12753        -1.91002        -4.64400
   H       -1.63630        -2.33983        -2.79808
   H        8.45518         4.00849        -9.05740
   H        8.99217         2.50524        -8.28964
   H        8.56800         5.16575        -6.84360
   H       10.13111         4.45577        -7.26379
   H        9.08587         3.66046        -6.08126
   H       -2.46304        -1.33321        -0.55721
   H       -1.91065         0.31431        -0.21797
   H       -0.45354        -2.23737         0.62611
   H       -1.39383        -1.18481         1.68926
   H        0.09648        -0.59163         0.94898
   H        6.94436        -2.22099         5.71345
   H        7.33077        -0.58350         5.12739
   H        8.81755        -3.11180         4.27306
   H        9.38452        -1.94404         5.47411
   H        9.19247        -1.44842         3.79221
   H        3.96842        -4.70329         1.69425
   H        4.09405        -3.67271         0.24630
   H        2.23742        -3.09904         2.60377
   H        1.75003        -3.82898         1.06822
   H        2.36267        -2.17388         1.09841
   H        8.93025         3.90838        -0.63617
   H       14.15157         4.98981         4.06563
   H        8.70254         6.18992        -0.54675
   H        8.75326         7.41802        -2.82823
   H       11.31312         1.24227         4.01247
   H       11.66660         0.78085         6.53132
   H       10.44874         7.98707        -4.74989
   H       12.07740         7.30746        -4.59813
   H       11.11570         9.89145        -3.27825
   H       12.18014         9.78434        -4.68571
   H       12.73098         9.19959        -3.11025
   H       12.15483         2.04946         8.74196
   H       11.98687         3.81091         8.66612
   H       14.55839         2.26320         8.08110
   H       14.21895         3.18748         9.54884
   H       14.37872         4.01748         7.99725
   H       22.05202         6.53097         6.62599
   H       21.15108         7.95372         6.04286
   H       22.79953         6.10970         4.25009
   H       23.32219         7.68731         4.85491
   H       21.94450         7.58150         3.75810
   H       18.95085         2.05344         5.43129
   H       17.69405         2.58597         4.28624
   H       17.55412         3.01957         7.30730
   H       16.70988         1.74805         6.41227
   H       16.31542         3.44112         6.11301
   H       16.30287        11.03616         1.29104
   H       21.53145        15.82243         2.06196
   H       16.90121        14.83080        -1.47506
   H       14.41071        14.80832        -2.17542
   H       21.94080        11.22369         2.96240
   H       23.83142        11.59548         4.68859
   H       12.07199        14.08434        -1.24281
   H       12.02281        13.65226         0.47431
   H       12.71467        11.73253        -1.80259
   H       11.18357        11.77688        -0.92043
   H       12.67005        11.31077        -0.08871
   H       24.64523        13.36522         6.40553
   H       23.48856        14.65376         6.77453
   H       25.57671        14.75380         4.54494
   H       25.66920        15.61476         6.08545
   H       24.41249        16.02755         4.91449
   H       20.09368        21.43489        -0.12604
   H       26.68354        22.23641        -0.02193
   H       24.96023        22.67276         0.10210
   H       26.31384        21.66711        -2.44771
   H       25.92160        23.35428        -2.09135
   H       24.62496        22.17235        -2.28042
   H       26.89210        16.63791        -0.09083
   H       25.20707        16.06219        -0.14256
   H       26.60642        17.04369         2.38996
   H       26.36448        15.34951         1.94153
   H       24.96889        16.37849         2.26783
*
