# ORCA input file
# SCF done       -201.203022767949          0.000912076323
! wb97x-d3 def2-SVP def2/J RIJCOSX Grid4 TightSCF
%maxcore 5000
%tddft
    Mode sTDA
    Ethresh 5.0
    maxcore 5000
end

%pal
  nprocs 6
  end
* xyz 1 2
   S        3.22311        -0.15391         2.64488
   N        2.56735        -1.24840         1.66667
   C        1.38619        -0.80501         1.24379
   C        1.07602         0.48641         1.78391
   N        2.04280         0.93574         2.58016
   C        0.49354        -1.47103         0.36477
   C       -0.68723        -0.79135         0.07855
   C       -0.98901         0.45923         0.60409
   C       -0.13752         1.14788         1.46354
   C       -0.42901         2.43713         2.00580
   C        0.82654        -2.74983        -0.17844
   C        0.07795        -3.51980        -1.06129
   C        0.71461        -4.70075        -1.40666
   C        1.94963        -4.84534        -0.76241
   S        2.33906        -3.51138         0.24666
   C        0.42027        -5.89268        -2.28526
   C        1.63648        -6.74467        -2.00390
   C        2.51181        -6.08591        -1.12188
   C        2.10567        -7.96916        -2.42230
   C        3.34898        -8.28400        -1.86750
   S        3.91582        -6.99412        -0.79198
   C       -1.56960         3.20650         1.80741
   C       -1.51512         4.41435         2.48237
   C       -0.32827         4.57112         3.20555
   S        0.72731         3.22449         3.05186
   C       -2.42589         5.60629         2.66276
   C       -1.56733         6.47090         3.55432
   C       -0.35442         5.82146         3.85364
   C       -1.66414         7.71855         4.12921
   C       -0.54389         8.04556         4.89785
   S        0.66521         6.75337         4.85194
   C        4.19228        -9.39368        -1.99138
   C        4.12541       -10.51312        -2.79010
   C        5.11313       -11.57629        -2.75022
   C        4.83859       -12.48316        -3.86539
   C        3.67997       -12.04329        -4.52265
   C        3.16642       -10.81877        -3.86761
   C        5.50204       -13.61203        -4.32064
   C        4.98244       -14.27183        -5.42464
   C        3.82640       -13.82924        -6.06745
   C        3.15887       -12.70144        -5.61878
   C        6.10286       -11.76603        -1.82031
   O        2.16100       -10.22379        -4.20044
   C        7.01796       -12.84027        -1.85103
   C        6.35012       -10.96586        -0.68410
   N        7.79635       -13.68302        -1.81795
   N        6.62011       -10.39089         0.27337
   F        5.61163       -15.36031        -5.88307
   F        3.35949       -14.49871        -7.12923
   C        0.43728        -5.52939        -3.78725
   C       -0.88380        -6.60060        -1.88510
   C       -0.61987        -4.52347        -4.22149
   C       -0.87200        -7.08134        -0.43865
   C       -3.70778         5.13163         3.38310
   C       -2.74377         6.29857         1.32760
   C       -0.21257         9.18447         5.63975
   C       -0.97125        10.26973         6.01716
   C       -0.43117        11.40835         6.73459
   C       -1.55695        12.21289         7.20870
   C       -2.74533        11.64180         6.72846
   C       -2.43472        10.43009         5.93534
   C       -1.60711        13.35516         7.99203
   C       -2.85290        13.89662         8.27351
   C       -4.02837        13.32379         7.78808
   C       -3.98554        12.18180         7.00489
   O       -3.25752         9.73120         5.37858
   C        0.88995        11.74215         6.88678
   C        1.33923        12.88145         7.58760
   C        1.98659        11.04217         6.33949
   N        2.93396        10.55251         5.91289
   N        1.76993        13.78634         8.14715
   F       -5.20961        13.88136         8.08389
   F       -2.92433        14.99568         9.03351
   C       -1.49140         6.63542         0.52650
   C       -4.68752         6.23707         3.75333
   H       -1.40676        -1.24787        -0.58246
   H       -1.92729         0.91145         0.32468
   H       -0.89128        -3.22216        -1.41598
   H        1.60216        -8.63467        -3.09838
   H       -2.39267         2.89009         1.19363
   H       -2.48765         8.39760         4.01713
   H        5.06406        -9.33233        -1.35064
   H        6.39895       -13.99548        -3.86330
   H        2.26573       -12.35283        -6.11227
   H        1.42511        -5.12685        -4.02493
   H        0.31240        -6.45521        -4.35178
   H       -1.71597        -5.90944        -2.02285
   H       -1.03185        -7.45260        -2.55080
   H       -0.48181        -3.57281        -3.71376
   H       -0.53218        -4.35016        -5.29152
   H       -1.62299        -4.88987        -4.02181
   H       -0.72480        -6.24750         0.24443
   H       -1.81885        -7.55852        -0.19814
   H       -0.07500        -7.80313        -0.27675
   H       -4.20602         4.40885         2.73272
   H       -3.40577         4.60510         4.29201
   H       -3.38701         5.64093         0.73948
   H       -3.29124         7.21813         1.53425
   H        0.81157         9.18140         5.99474
   H       -0.72982        13.83434         8.39407
   H       -4.89144        11.73405         6.62853
   H       -0.93633         5.73475         0.27398
   H       -1.76554         7.13909        -0.39722
   H       -0.83732         7.29384         1.09351
   H       -5.05554         6.75230         2.87066
   H       -5.54092         5.80074         4.26745
   H       -4.22893         6.96312         4.41767
*
