# ORCA input file
# SCF done       -216.170045742950          0.000821139744
! wb97x-d3 def2-SVP def2/J RIJCOSX Grid4 TightSCF
%maxcore 5000
%tddft
    Mode sTDA
    Ethresh 5.0
    maxcore 5000
end

%pal
  nprocs 6
  end
* xyz 1 2
   C        1.63901         2.51735       -10.86868
   O        0.69976         2.22240       -10.15129
   C        2.08037         1.77583       -12.06944
   C        1.53761         0.63200       -12.61886
   C        2.13283         0.12457       -13.76280
   C        3.23979         0.75746       -14.32714
   C        3.78508         1.90676       -13.77292
   C        3.19586         2.42060       -12.62880
   C        3.51782         3.59510       -11.81405
   C        4.55360         4.45996       -12.06062
   C        4.88228         5.59710       -11.29361
   N        5.22067         6.53753       -10.72688
   C        5.45439         4.32790       -13.13864
   N        6.21853         4.28146       -13.99384
   C        2.55384         3.65055       -10.73628
   F        3.79434         0.24708       -15.43293
   C        2.50254         4.61436        -9.75298
   F        1.63948        -0.98298       -14.33146
   C      -13.08487         7.15267         4.82783
   O      -12.02187         7.43299         4.30411
   C      -13.77100         7.93659         5.87695
   C      -13.36603         9.11518         6.46998
   C      -14.19155         9.66214         7.43951
   C      -15.38508         9.03321         7.79266
   C      -15.79080         7.84830         7.19544
   C      -14.97105         7.29467         6.22503
   C      -15.10612         6.07912         5.41836
   C      -16.16594         5.21026         5.48001
   C      -16.32193         4.04139         4.70642
   N      -16.53130         3.07959         4.11362
   C      -17.27309         5.37274         6.33949
   N      -18.19758         5.43959         7.01655
   C      -13.93952         5.99457         4.56657
   F      -16.16332         9.58294         8.73222
   C      -13.67337         4.98846         3.66431
   F      -13.84005        10.80457         8.04254
   C      -12.60309         4.81237         2.78611
   S      -11.22201         5.88336         2.57457
   C      -10.60751         4.84075         1.37004
   C      -11.42092         3.71576         1.12000
   C      -12.53057         3.69918         1.92650
   C       -9.47078         4.76265         0.54009
   C       -9.54279         3.60115        -0.23612
   C      -10.81829         2.84134         0.04525
   S       -8.05686         5.67837         0.23122
   C       -7.55321         4.50280        -0.96327
   C       -8.46079         3.45720        -1.08706
   C       -6.35120         4.65651        -1.71823
   C       -5.45940         5.71531        -1.56712
   C       -4.29845         5.88842        -2.32988
   C       -3.90340         5.01411        -3.33766
   C       -4.78417         3.91689        -3.49946
   C       -5.96479         3.73385        -2.72499
   N       -4.70197         2.89213        -4.35427
   N       -5.75251         2.16730        -4.09745
   N       -6.54106         2.60146        -3.15425
   C       -2.75295         5.16016        -4.17198
   S       -2.46546         3.97438        -5.42573
   C       -1.06741         4.83719        -5.91956
   C       -0.82510         5.97333        -5.13887
   C       -1.78731         6.15910        -4.15834
   C       -0.09881         4.75322        -6.93979
   C        0.77550         5.85045        -6.81209
   C        0.40716         6.70234        -5.61792
   S        0.26703         3.73518        -8.26142
   C        1.62449         4.77638        -8.68093
   C        1.74155         5.85694        -7.78519
   F       -3.55927         6.97725        -2.04671
   C        1.56396         6.62019        -4.59678
   C        1.28183         7.27102        -3.24948
   C        0.09970         8.15446        -6.01563
   C       -0.96002         8.25342        -7.10677
   C      -11.66508         2.84029        -1.24679
   C      -13.06453         2.25826        -1.10221
   C      -10.54270         1.41593         0.54888
   C       -9.59087         1.38807         1.73908
   C       -6.04689         0.97980        -4.84716
   C       -6.65023         1.34406        -6.20007
   F       -5.70738         6.65726        -0.63755
   H        0.68089         0.14732       -12.17867
   H        4.64084         2.35555       -14.24948
   H        3.25655         5.39050        -9.80166
   H      -12.44209         9.59707         6.19277
   H      -16.72203         7.40417         7.50597
   H      -14.40401         4.19095         3.60496
   H      -13.28551         2.93318         1.94260
   H       -8.29923         2.64967        -1.77594
   H       -1.80891         6.98377        -3.47169
   H        2.51662         6.59498        -7.89342
   H        1.79737         5.56439        -4.43752
   H        2.44019         7.08861        -5.04962
   H        0.44063         6.79314        -2.75567
   H        2.15460         7.16450        -2.60943
   H        1.07158         8.33136        -3.35656
   H       -0.24810         8.69359        -5.13424
   H        1.02351         8.62248        -6.36070
   H       -1.89482         7.80564        -6.77707
   H       -1.14684         9.29663        -7.34911
   H       -0.63547         7.74428        -8.01135
   H      -11.74632         3.87262        -1.59613
   H      -11.11377         2.27735        -2.00293
   H      -13.65151         2.83231        -0.39118
   H      -13.57035         2.29470        -2.06433
   H      -13.03267         1.22191        -0.77817
   H      -11.48818         0.95744         0.83955
   H      -10.11721         0.83463        -0.27143
   H       -9.99565         1.96250         2.56920
   H       -9.44173         0.36394         2.07223
   H       -8.62323         1.80603         1.47144
   H       -5.11247         0.43252        -4.98750
   H       -6.74528         0.38754        -4.25397
   H       -5.95194         1.95681        -6.76438
   H       -6.85979         0.44027        -6.76430
   H       -7.57728         1.89636        -6.06619
*
