# ORCA input file
# SCF done       -188.630125405034          0.002676796561
! wb97x-d3 def2-SVP def2/J RIJCOSX Grid4 TightSCF
%maxcore 5000
%tddft
    Mode sTDA
    Ethresh 5.0
    maxcore 5000
end

%pal
  nprocs 6
  end
* xyz 1 2
   C       -1.10284        -0.72743         2.25967
   O       -1.07711         0.48959         2.19004
   C       -2.26921        -1.58719         1.97173
   C       -3.53251        -1.21595         1.56412
   C       -4.47235        -2.21581         1.34857
  Br       -6.21265        -1.74168         0.78153
   C       -4.13304        -3.55498         1.54465
  Br       -5.41761        -4.91099         1.24536
   C       -2.85760        -3.92508         1.95786
   C       -1.91615        -2.93301         2.17345
   C       -0.51629        -2.99357         2.59718
   C        0.16580        -4.14857         2.88989
   C        1.51431        -4.23058         3.29374
   N        2.60514        -4.38227         3.62095
   C       -0.40297        -5.43846         2.82768
   N       -0.80750        -6.51205         2.80039
   C       -0.02126        -1.63363         2.64038
   C        1.26189        -1.26751         2.98287
   C        1.86901        -0.01448         3.05660
   S        1.06848         1.52495         2.72521
   C        2.53232         2.37191         3.05316
   C        3.57991         1.49707         3.39921
   C        3.22198         0.15794         3.41037
   C        4.19478        -0.93712         3.70236
   C        4.78119        -1.50229         2.40441
   S        5.09449         2.31154         3.74328
   C        4.31425         3.81970         3.42292
   C        2.96514         3.70036         3.06520
   N        2.43410         4.93965         2.82512
   C        0.99582         5.08838         2.76942
   C        3.43018         5.87844         3.03289
   C        4.61525         5.18554         3.42842
   C        5.79679         5.85931         3.80841
   N        6.94500         5.34732         4.22205
   S        7.94578         6.56491         4.58914
   N        6.95283         7.79192         4.23190
   C        5.80226         7.28992         3.81203
   C        4.65782         7.97368         3.34666
   C        3.48479         7.29322         2.90263
   N        2.59581         8.24126         2.42095
   C        1.43929         8.09585         1.56485
   C        1.80483         7.43660         0.23706
   C        3.17784         9.47297         2.55863
   C        4.44252         9.34153         3.14318
   S        5.27608        10.83761         3.35051
   C        3.91225        11.67705         2.64078
   C        2.87386        10.80582         2.26963
   S        1.55687        11.66200         1.56735
   C        2.37706        13.20103         1.84883
   C        3.65002        13.03119         2.39720
   C        4.63693        14.13391         2.56952
   C        6.05315        13.75667         2.14310
   C        1.69957        14.34990         1.40906
   C        1.78469        15.62117         1.92322
   C        1.25079        16.81538         1.30542
   C        0.84395        16.94742         0.00297
   C        0.34981        18.14674        -0.55206
   N       -0.06574        19.09288        -1.05230
   C        0.89518        15.91907        -0.96237
   N        0.93369        15.14088        -1.80601
   C        1.31703        17.89093         2.29257
   C        0.93531        19.22024         2.22835
   C        1.13619        20.02417         3.34538
  Br        0.61891        21.84214         3.25764
   C        1.70497        19.51332         4.51315
  Br        1.97078        20.62939         6.01557
   C        2.08478        18.17864         4.58343
   C        1.89071        17.38575         3.47219
   C        2.20297        15.94777         3.29985
   O        2.61680        15.19511         4.15682
   C        0.45391         5.73331         4.04271
   H       -3.78088        -0.17625         1.41445
   H       -2.63441        -4.96979         2.09656
   H        1.92897        -2.08031         3.23495
   H        5.00388        -0.52204         4.30655
   H        3.72443        -1.74280         4.26828
   H        5.29598        -0.72086         1.84996
   H        5.48947        -2.29283         2.63604
   H        3.99731        -1.91678         1.77442
   H        0.69957         5.64032         1.87798
   H        0.58359         4.08110         2.67376
   H        0.64599         7.55551         2.08079
   H        1.06638         9.10498         1.37292
   H        2.25692         6.45949         0.39123
   H        0.91509         7.32082        -0.37569
   H        2.51619         8.05765        -0.30200
   H        4.30072        14.99742         1.98937
   H        4.63548        14.43403         3.62316
   H        6.05432        13.35074         1.13330
   H        6.68169        14.64357         2.15809
   H        6.48820        13.02198         2.81495
   H        0.99614        14.18266         0.60095
   H        0.48685        19.64711         1.34587
   H        2.52378        17.77281         5.48201
   H        0.68403         5.10688         4.90169
   H        0.89559         6.71311         4.21060
   H       -0.62537         5.83925         3.97331
*
