# ORCA input file
# SCF done       -196.344864887660          0.001339094755
! wb97x-d3 def2-SVP def2/J RIJCOSX Grid4 TightSCF
%maxcore 5000
%tddft
    Mode sTDA
    Ethresh 5.0
    maxcore 5000
end

%pal
  nprocs 6
  end
* xyz 1 2
   C       -0.39390        -1.42829         4.47789
   O       -1.29899        -1.86552         3.80278
   C       -0.41020        -1.21595         5.94389
   C       -1.46862        -1.37019         6.81718
   C       -1.23301        -1.13176         8.16173
   F       -2.23171        -1.26409         9.04270
   C        0.03531        -0.75702         8.60733
   F        0.23442        -0.54102         9.91199
   C        1.09984        -0.60655         7.73123
   C        0.87009        -0.83919         6.38430
   C        1.76124        -0.76429         5.22892
   C        3.05517        -0.31314         5.23354
   C        3.83722        -0.14147         4.07137
   N        4.51322         0.04715         3.16292
   C        3.75437         0.06944         6.39698
   N        4.36876         0.38338         7.31374
   C        0.99831        -1.14816         4.06231
   C        1.50553        -1.46542         2.83138
   C        0.77729        -1.62294         1.63188
   S        1.39525        -2.81945         0.49080
   C        0.20440        -2.37148        -0.66850
   C       -0.58346        -1.31142        -0.19559
   C       -0.27793        -0.88612         1.10402
   C       -0.90173         0.32642         1.71402
   C       -2.41051         0.16645         1.90416
   S       -1.73484        -0.73217        -1.37718
   C       -1.15310        -1.91469        -2.49300
   C       -0.13918        -2.73422        -1.97495
   N        0.27971        -3.61562        -2.93427
   C        1.47816        -4.40867        -2.77869
   C       -0.43927        -3.35791        -4.07950
   C       -1.33058        -2.27634        -3.83730
   C       -2.06449        -1.69565        -4.89276
   N       -2.91844        -0.68434        -4.85172
   S       -3.38128        -0.34057        -6.36158
   N       -2.51478        -1.45948        -7.13268
   C       -1.82981        -2.15809        -6.23633
   C       -0.97660        -3.25482        -6.44227
   C       -0.37170        -3.92360        -5.37365
   N        0.31673        -5.06999        -5.79785
   C        0.09243        -6.36668        -5.17412
   C       -1.33512        -6.87294        -5.37563
   C        0.27769        -5.05351        -7.20367
   C       -0.55840        -3.89030        -7.68644
   S        1.23748        -3.66981        -8.01103
   C       -0.16207        -6.33522        -9.26482
   C        0.17058        -6.13928        -8.10506
   S       -1.77602        -3.98185        -9.02509
   C       -1.19359        -4.79222       -10.56715
   C       -0.59276        -6.03088       -10.55492
   C       -0.33210        -6.95335       -11.70212
   C       -1.63399        -7.42225       -12.35595
   C       -1.54632        -3.96931       -11.66926
   C        1.28040        -5.55817        -1.79144
   C       -1.51783        -3.10955       -13.92291
   C       -1.06987        -3.09806       -15.21757
   C       -1.33414        -2.08457       -16.22086
   C       -2.18131        -1.01369       -16.11530
   C       -2.38909        -0.06473       -17.13995
   N       -2.60138         0.73951       -17.93049
   C       -2.98110        -0.70581       -14.99338
   N       -3.66860        -0.39002       -14.13032
   C       -0.53884        -2.41747       -17.40360
   C       -0.38166        -1.76109       -18.61506
   C        0.46099        -2.32813       -19.55907
   F        0.63099        -1.70697       -20.73109
   C        1.13528        -3.52551       -19.31577
   F        1.93828        -4.03618       -20.25614
   C        0.98392        -4.18700       -18.10811
   C        0.14877        -3.61911       -17.16600
   C       -0.16193        -4.10992       -15.80512
   O        0.25625        -5.13107       -15.30041
   C       -1.17788        -4.09696       -12.97446
   H       -2.44704        -1.66347         6.47146
   H        2.06308        -0.32316         8.12321
   H        2.56910        -1.66262         2.75250
   H       -0.42668         0.54883         2.66989
   H       -0.71897         1.16755         1.03725
   H       -2.61705        -0.68799         2.54196
   H       -2.81731         1.06049         2.36938
   H       -2.90315         0.01753         0.94710
   H        1.78169        -4.77040        -3.76162
   H        2.27133        -3.75332        -2.40111
   H        0.80950        -7.06289        -5.61716
   H        0.29703        -6.28573        -4.11037
   H       -1.56003        -6.99134        -6.43374
   H       -1.45493        -7.83566        -4.88601
   H       -2.04804        -6.17054        -4.94765
   H        0.30212        -6.46590       -12.44553
   H        0.21423        -7.82050       -11.32480
   H       -2.21133        -6.58043       -12.72839
   H       -1.40695        -8.08243       -13.18888
   H       -2.24341        -7.96625       -11.63729
   H       -2.12335        -3.09237       -11.39551
   H        1.14470        -5.17353        -0.78445
   H        0.40620        -6.15493        -2.04302
   H        2.15688        -6.19977        -1.79764
   H       -2.14818        -2.29945       -13.57916
   H       -0.87701        -0.83416       -18.85264
   H        1.50511        -5.11075       -17.91386
   H       -0.57342        -4.91682       -13.31976
*
