# ORCA input file
# SCF done       -248.886916428090          0.000879712467
! wb97x-d3 def2-SVP def2/J RIJCOSX Grid4 TightSCF
%maxcore 5000
%tddft
    Mode sTDA
    Ethresh 5.0
    maxcore 5000
end

%pal
  nprocs 6
  end
* xyz 1 2
   C       -1.80837        -2.30702         2.59476
   C       -1.48516        -1.77796         1.35700
   S       -0.62955        -2.00525         3.82544
   C        0.33703        -1.14005         2.66199
   C       -0.25918        -1.11964         1.38256
   C        1.54851        -0.47208         2.74035
   C        1.91420         0.08298         1.52234
   S        0.71363        -0.25738         0.26339
   C        3.03118         0.82724         1.10648
   C        4.09669         1.34272         1.79733
   C        5.16763         2.09416         1.16341
   C        5.98548         2.68387         2.22146
   C        5.50356         2.23605         3.46214
   C        4.33468         1.35729         3.25807
   C        7.07324         3.54230         2.17961
   C        7.65930         3.92816         3.37816
   C        7.18277         3.47268         4.59906
   C        6.09145         2.61734         4.65221
   O        3.71911         0.79069         4.13870
   C        5.43015         2.19571        -0.17810
   C        6.49812         2.94190        -0.72064
   C        4.72379         1.55742        -1.22005
   N        4.23325         1.06857        -2.13682
   N        7.33936         3.53152        -1.23347
   C      -10.35895        -6.67101         2.40307
   C      -10.98831        -6.50244         1.18245
   S      -11.23527        -7.66017         3.52299
   C      -12.48294        -7.86981         2.32139
   C      -12.20185        -7.18426         1.11925
   C      -13.67456        -8.56400         2.29104
   C      -14.33625        -8.42897         1.06672
   S      -13.44107        -7.40538        -0.05304
   C      -15.55648        -9.07170         0.81812
   C      -16.35045        -9.07924        -0.30104
   C      -17.59754        -9.80335        -0.44815
   C      -18.10932        -9.52586        -1.79114
   C      -17.21298        -8.66568        -2.44873
   C      -16.08492        -8.35622        -1.55116
   O      -15.13387        -7.64094        -1.81163
   C      -18.21019       -10.61089         0.47511
   C      -19.42858       -11.28740         0.25464
   N      -20.41304       -11.86984         0.15520
   C      -17.73522       -10.89798         1.77201
   N      -17.42464       -11.18710         2.83982
   C      -19.25159        -9.95355        -2.44903
   C      -19.47387        -9.51260        -3.74764
   C      -18.58407        -8.66276        -4.38796
   C      -17.43663        -8.22841        -3.73909
   C      -10.14926        -5.65468         0.26518
   C       -8.92823        -5.41109         1.13782
   C       -9.10141        -5.99045         2.42376
   C       -9.89293        -6.43828        -1.00699
   C      -10.77378        -4.30150        -0.03131
   C      -10.89804        -6.50746        -1.96512
   C      -10.72131        -7.25373        -3.11298
   C       -9.53947        -7.94978        -3.33561
   C       -8.54252        -7.88206        -2.37259
   C       -8.71698        -7.14266        -1.21571
   C      -11.75507        -3.76308         0.78835
   C      -12.27843        -2.51021         0.52705
   C      -11.83119        -1.76000        -0.55147
   C      -10.83981        -2.29803        -1.36176
   C      -10.31718        -3.55139        -1.10762
   C       -9.33073        -8.71363        -4.61162
   C      -12.36957        -0.38127        -0.80469
   C       -7.78908        -4.71347         0.82876
   C       -6.81914        -4.58918         1.82380
   C       -7.02137        -5.13507         3.12087
   C       -8.16277        -5.85823         3.43354
   C       -5.53612        -3.96437         1.84447
   C       -5.02897        -4.13033         3.16262
   N       -5.94504        -4.82333         3.91427
   C       -5.76661        -5.23645         5.28128
   C       -5.08086        -6.59852         5.37465
   C       -4.78895        -3.31815         0.85925
   C       -3.55413        -2.83953         1.21333
   C       -3.07747        -2.96532         2.54617
   C       -3.79449        -3.61856         3.53455
   C       -2.53327        -2.13291         0.33679
   C       -1.85082        -3.05905        -0.65961
   C       -1.95744        -4.43920        -0.57653
   C       -1.25876        -5.24755        -1.45580
   C       -0.42828        -4.70202        -2.42459
   C       -0.32377        -3.31848        -2.50111
   C       -1.02373        -2.50652        -1.63076
   C       -3.16894        -0.94522        -0.35255
   C       -3.13713         0.32061         0.21429
   C       -3.74466         1.38835        -0.42041
   C       -4.40956         1.21758        -1.62687
   C       -4.45223        -0.05471        -2.18224
   C       -3.84144        -1.12340        -1.55518
   C       -8.76756        -7.79386        -5.69712
   C      -11.55468         0.66071        -0.03565
   C        0.30432        -5.58151        -3.39627
   C       -0.53376        -5.79944        -4.65768
   C       -5.01696         2.38940        -2.34245
   C       -3.98005         3.04860        -3.25433
   H        2.14681        -0.37675         3.62742
   H        3.01374         1.04047         0.04363
   H        7.46380         3.91571         1.24736
   H        8.50553         4.59843         3.35458
   H        7.66376         3.78889         5.51250
   H        5.70045         2.25216         5.58956
   H      -14.06746        -9.15203         3.10098
   H      -15.90367        -9.65420         1.66305
   H      -19.96197       -10.61325        -1.97873
   H      -20.36166        -9.84156        -4.26665
   H      -18.78697        -8.33809        -5.39743
   H      -16.72985        -7.56702        -4.21631
   H      -11.82274        -5.97076        -1.81226
   H      -11.51616        -7.29981        -3.84299
   H       -7.61710        -8.41995        -2.52406
   H       -7.93091        -7.11397        -0.47504
   H      -12.11972        -4.32335         1.63689
   H      -13.04892        -2.11124         1.17152
   H      -10.47507        -1.72996        -2.20591
   H       -9.55734        -3.95759        -1.75937
   H       -8.63588        -9.53867        -4.44225
   H      -10.28086        -9.13049        -4.95157
   H      -12.32507        -0.15649        -1.87220
   H      -13.41288        -0.32737        -0.48729
   H       -7.63853        -4.27458        -0.14487
   H       -8.32933        -6.30200         4.40266
   H       -5.16937        -4.47927         5.79580
   H       -6.74828        -5.27608         5.76056
   H       -4.10078        -6.56009         4.90492
   H       -4.95907        -6.88563         6.41538
   H       -5.67608        -7.35578         4.86974
   H       -5.17275        -3.21084        -0.14297
   H       -3.39558        -3.71496         4.53226
   H       -2.58786        -4.88919         0.17643
   H       -1.35537        -6.32145        -1.37914
   H        0.31980        -2.87116        -3.24462
   H       -0.93014        -1.43261        -1.70508
   H       -2.63264         0.47800         1.15676
   H       -3.70216         2.36960         0.03062
   H       -4.96821        -0.21039        -3.11921
   H       -3.87270        -2.10293        -2.01043
   H       -7.81323        -7.37745        -5.38200
   H       -8.61796        -8.34369        -6.62348
   H       -9.45314        -6.97117        -5.88782
   H      -10.51191         0.62850        -0.34373
   H      -11.94195         1.65991        -0.22123
   H      -11.60035         0.46304         1.03302
   H        1.25335        -5.11717        -3.67119
   H        0.51709        -6.54760        -2.93395
   H       -0.74262        -4.84778        -5.14118
   H       -0.00399        -6.43771        -5.36098
   H       -1.48138        -6.27076        -4.40572
   H       -5.86597         2.05778        -2.94360
   H       -5.37660         3.12219        -1.61721
   H       -3.61748         2.33544        -3.99126
   H       -4.41540         3.89753        -3.77624
   H       -3.13085         3.39710        -2.67092
*
