# ORCA input file
# SCF done       -239.120984487784          0.000659364323
! wb97x-d3 def2-SVP def2/J RIJCOSX Grid4 TightSCF
%maxcore 5000
%tddft
    Mode sTDA
    Ethresh 5.0
    maxcore 5000
end

%pal
  nprocs 6
  end
* xyz 1 2
   C       -2.13210         0.45903         0.96246
   C       -2.82359        -0.73344         1.17730
   C       -3.07578         1.63449         0.92333
   C       -4.39403         0.92388         1.10741
   C       -4.20399        -0.44876         1.28008
   C       -2.90823         2.60724         2.07859
   C       -2.91752         2.33999        -0.41091
   C       -5.73871         1.26142         1.17060
   C       -6.57052         0.13742         1.38250
   S       -5.66207        -1.34472         1.52288
   C       -3.75317         2.07352        -1.48455
   C       -3.55998         2.71671        -2.69381
   C       -2.52345         3.62409        -2.86345
   C       -1.68023         3.87327        -1.78759
   C       -1.87246         3.24043        -0.57549
   C       -3.58003         3.82238         2.03289
   C       -3.48389         4.71337         3.08354
   C       -2.71600         4.41607         4.20277
   C       -2.05389         3.19688         4.24412
   C       -2.14979         2.29783         3.19714
   C       -9.35727         2.52501         1.10766
   C      -10.67882         2.17454         1.22682
   C      -11.77289         3.10977         1.02749
   C      -13.01563         2.42487         1.38467
   C      -12.71337         1.09803         1.73085
   C      -11.25760         0.87353         1.62757
   O      -10.69483        -0.17998         1.84743
   C      -11.70319         4.38942         0.54103
   C      -10.54037         5.06560         0.11293
   N       -9.66005         5.69466        -0.27364
   C      -12.82332         5.23081         0.36490
   N      -13.68280         5.97258         0.19632
   C      -14.32934         2.86307         1.42020
   C      -15.29502         1.94194         1.80268
   C      -15.00803         0.62795         2.14205
   C      -13.69183         0.19693         2.10629
   F      -16.57473         2.34627         1.84677
   S       -6.66983         2.69337         1.00393
   C       -8.17394         1.77654         1.21042
   C       -7.92410         0.42421         1.40637
   S       -1.81851        -2.14372         1.18590
   C       -0.43853        -1.13666         0.87175
   C       -0.77344         0.23283         0.77995
   C        7.95792        -3.56219        -0.79850
   C        9.21840        -3.23955        -1.23381
   C       10.28140        -4.21762        -1.38957
   C       11.39251        -3.56191        -2.07920
   C       11.06882        -2.20806        -2.26456
   C        9.72345        -1.93630        -1.71911
   C       12.60860        -4.04781        -2.53081
   C       13.46005        -3.14513        -3.15330
   C       13.15353        -1.80461        -3.33567
   C       11.93462        -1.32595        -2.88322
   O        9.18011        -0.85057        -1.70230
   C       10.30094        -5.50926        -0.93177
   C        9.28768        -6.14757        -0.18438
   C       11.38294        -6.39713        -1.11642
   N       12.21878        -7.17475        -1.23381
   N        8.53181        -6.74429         0.44190
   F       14.64217        -3.59521        -3.60387
   C        0.91773        -1.36414         0.67241
   C        1.60166        -0.17548         0.41658
   S        0.60235         1.23809         0.44351
   C        1.84359        -2.55174         0.58836
   C        3.13373        -1.85886         0.22362
   C        2.95748        -0.47534         0.15510
   C        2.05903        -3.27302         1.90777
   C        1.31258        -3.49776        -0.47322
   C        2.72616        -4.49176         1.90248
   C        2.97920        -5.15470         3.08685
   C        2.57180        -4.62091         4.30359
   C        1.91147        -3.40024         4.30116
   C        1.65975        -2.72820         3.11827
   C        1.76969        -3.46072        -1.78160
   C        1.23477        -4.31302        -2.73083
   C        0.22561        -5.20717        -2.40134
   C       -0.23593        -5.22924        -1.09091
   C        0.29822        -4.38561        -0.13715
   C        2.88831        -5.32339         5.59172
   C        4.26909        -4.90432         6.10086
   C       -0.31882        -6.16435        -3.42131
   C        0.47319        -7.47337        -3.39681
   C        4.44995        -2.21486        -0.03626
   C        5.26834        -1.09660        -0.31864
   S        4.39108         0.40797        -0.23447
   S        5.34687        -3.67447        -0.13902
   C        6.81345        -2.77921        -0.57782
   C        6.58259        -1.41041        -0.61855
   C       -2.64856         5.36694         5.36236
   C       -3.76916         5.06981         6.36092
   C       -2.35051         4.36158        -4.15900
   C       -3.14254         5.67058        -4.13123
   H       -4.56143         1.36437        -1.38153
   H       -4.22548         2.50617        -3.51857
   H       -0.86315         4.57114        -1.89935
   H       -1.21347         3.45247         0.25412
   H       -4.17431         4.07272         1.16614
   H       -4.01130         5.65466         3.03161
   H       -1.45286         2.94518         5.10622
   H       -1.62793         1.35379         3.25547
   H       -9.16798         3.57038         0.89324
   H      -14.62613         3.86827         1.17192
   H      -15.81146        -0.03220         2.42779
   H      -13.42394        -0.81592         2.36353
   H       -8.70738        -0.29600         1.55450
   H        7.78373        -4.61454        -0.60594
   H       12.91176        -5.07603        -2.42554
   H       13.86636        -1.16131        -3.82660
   H       11.65567        -0.29119        -3.00662
   H        3.04145        -4.92448         0.96414
   H        3.49927        -6.10110         3.06549
   H        1.58790        -2.96652         5.23661
   H        1.14839        -1.77695         3.14366
   H        2.54719        -2.76683        -2.06611
   H        1.60636        -4.27737        -3.74489
   H       -1.02436        -5.91385        -0.81372
   H       -0.06755        -4.41992         0.87893
   H        2.13639        -5.07674         6.34387
   H        2.87613        -6.40380         5.43619
   H        4.29977        -3.83038         6.27167
   H        4.49986        -5.41152         7.03456
   H        5.03403        -5.15637         5.37001
   H       -1.36855        -6.37500        -3.20769
   H       -0.25378        -5.72249        -4.41751
   H        0.41036        -7.93502        -2.41401
   H        0.08018        -8.16946        -4.13391
   H        1.52115        -7.28581        -3.61960
   H        7.34799        -0.69805        -0.86504
   H       -1.68424         5.27134         5.86500
   H       -2.74855         6.39356         5.00536
   H       -3.68448         4.05143         6.73360
   H       -3.71850         5.75403         7.20450
   H       -4.73983         5.17886         5.88267
   H       -1.29382         4.58324        -4.32099
   H       -2.70258         3.74472        -4.98808
   H       -2.79826         6.30328        -3.31629
   H       -3.01849         6.21023        -5.06696
   H       -4.20104         5.46936        -3.98325
*
